! PBE0 D3BJ CPCM(water) Opt ma-def2-TZVP

%pal
  nprocs 12
end

%maxcore 2500

%scf
  # A safety mechanism for difficult convergence
  MaxIter 500  # Increase max iterations from default 125
end

%geom
  Constraints
    { C 4 C }
    { C 6 C }
    { C 15 C }
    { C 16 C }
    { C 17 C }
    { C 25 C }
    { C 28 C }
    { C 40 C }
    { C 41 C }
    { C 54 C }
    { C 57 C }
    { C 59 C }
    { C 69 C }
    { C 70 C }
    { C 73 C }
    { C 81 C }
    { C 85 C }
    { C 88 C }
  end
end

* xyz -1 1
Si 0.82550255355176105354 16.90273320973710724502 8.02672835381115490350
Si 3.57859340922910362792 15.40405377145618714962 7.91524253248195375221
Si 3.61525346615328846411 12.32827187791312439913 7.79142758665883317093
O  -0.39399254891024959591 16.38822460685164728034 8.97049796284228406762
O  2.14699993216791717998 16.01900001968448350453 8.38100000354761931476
O  2.16833123007937444982 11.70013062152193406007 8.17358994511879721756
O  3.71000007336615666986 13.84500001206939323595 8.38399999022010433691
O  0.51413263809303444418 16.82449474315298942884 6.43064562650557380863
O  3.78242852435889709284 15.56381404647785693385 6.30078740345184495908
O  3.83835818642672066403 12.26151674796742341300 6.17638957720698655862
Si 0.79040521391672236007 20.03769999437896132122 8.11798346736918574607
Si 3.61646548652981181249 24.59144274204279412288 7.78977790194838615179
Si 3.57392348302733431353 21.51644696725755068201 7.91298143299777834159
O  -0.36656750969684459562 20.60916375772369590891 9.10618692018838871149
O  2.16894289324583144918 25.21986234429772011367 8.16918535768694731303
O  2.14699987870195574402 20.90100010849569400762 8.38099999046515797829
O  1.04500007260506411200 18.45999992779975684698 8.38400000870607087222
O  3.71000014253100118822 23.07499992216509454579 8.38400000281351864828
O  0.28796921085350035696 20.17942496589233414284 6.58029563307766718339
O  3.84322893283315902835 24.65740308561628424400 6.17523017796904483134
O  3.76807242836338573966 21.35886612711307463996 6.29712045018754551506
Si 6.22270347579136373639 10.74478960498475643703 7.89204934696436755104
Si 6.22770124910424360820 16.89731263878102041076 8.01236721963498510490
Si 8.87567145212839569979 15.40393457143936117859 8.07146715692914185070
Si 8.88269978306993657213 12.35331710642290303781 7.92738883088643131458
O  4.81099995233653832116 11.40399996697322571038 8.38100000634394959320
O  4.84026669077007998254 16.22821143681165168005 8.54553523653080304712
O  7.53252357384697468490 16.13444987528751539685 8.63606403497603913877
O  7.47600004608486479185 11.67100011745666066076 8.38099990094879743197
O  6.39553672734763267727 9.26420228585541316590 8.53484834745835563297
O  8.97115879426086237913 13.85656788260137339819 8.57903221240847813078
O  6.19358004147956187069 10.56500296509319625216 6.27778410219783999935
O  6.34068246365453003222 16.74021436428951048470 6.38952258309537768355
O  8.84554268488572681406 15.39082833590711096861 6.42808061481040926566
O  8.99617660885169101448 12.49448487452248279794 6.29922596548651370085
Si 6.21638831213471210191 20.01550527423929892734 8.00088218751934121542
Si 6.22275724164696875107 26.17797516851006278671 7.89639692516306457293
Si 8.88164519439646404919 24.57359632827887452322 7.91870132378015600949
Si 8.85075348248568616327 21.52825989472250611811 8.03684231677567417762
O  4.83212175976388458309 20.68555652698999125505 8.53863758872677713896
O  4.81099990958063106206 25.51600005991591402221 8.38100000764404562403
O  7.47600002707436672722 25.24899994730938956877 8.38100000213010787320
O  7.51705029076591468851 20.79206822688792044573 8.61378728535165727465
O  6.27926988783369033342 18.45840706889211446651 8.45642105970489410538
O  8.96178706215652276512 23.06765937269756960859 8.56086480813984707083
O  6.31668640922662483206 20.15996000935817633604 6.37582710782641370884
O  6.19404507233450996040 26.36676297823585457536 6.28308224213835142535
O  8.99771841032395514048 24.44641163328521571430 6.28994570338503855567
O  8.79833295317305186245 21.55854514656117615345 6.39502418988817566969
O  6.39500684381515949184 27.65560332693598510900 8.54611655614069043452
Si 11.54077779836179118433 10.90435188979510883200 7.70392434406093684629
Si 11.54475449159487432382 16.89738978571920213767 7.91695221533455217866
Si 14.20353642141101602192 15.39713060179979819964 7.87470927536001852332
Si 14.23581999581091395157 12.29374204360826894344 7.89821821225559617119
O  10.14000005653823066609 11.40400003707399179120 8.38100000495485453200
O  10.19474378926097557496 16.23030459124748148270 8.55061148453120267732
O  12.85059854126155087783 16.10098612351344726790 8.48098101239950352692
O  12.80500000964136120274 11.67100000748342836232 8.38100000018248891820
O  11.70002193364941867060 9.30021622482759013906 7.89283361379292447424
O  14.36799996918680655256 13.84500000208274883562 8.38400000471620643339
O  11.52647380489502282330 11.21103036632812788298 6.10107396602045248812
O  11.53153699828768630198 16.72019066050745550456 6.29171039353501804214
O  14.13836302349374562937 15.44005707726810605607 6.24791032280287605971
O  14.36592144811672611127 12.11520262362196831418 6.28747361757637168722
Si 11.52107505588174163336 20.04305286616720138682 7.85872179575187246314
Si 11.54104380103354543508 26.02008594666378726856 7.70790687709989974508
Si 14.23698923276173644581 24.62924592864722228569 7.90140961286892995474
Si 14.21263218732670452482 21.53527638937418231535 7.85646401831186391718
O  10.17156461862368033167 20.69915960864534909547 8.49678380149144807376
O  10.13999999749758984535 25.51600000970762494035 8.38100000468082306782
O  12.80500000764718393498 25.24900000326711335674 8.38100000036555492500
O  12.80499995734114548895 20.90100007573774121283 8.38099996898924892719
O  11.64364378200462013524 18.47899260427311318722 8.30700780893043955189
O  14.36799998937551769984 23.07499998701417354141 8.38400000716966253833
O  11.49649711741430735401 20.16818415099319494743 6.23103184691619560454
O  11.52979969120751491118 25.72254299502306196246 6.10357093139584705455
O  14.36785320451629033300 24.80206541836914624355 6.29032779312362855251
O  14.23459250193100089632 21.46715811046172461829 6.21933352084700263873
O  11.70097780558029221254 27.62284072005215307399 7.90688338388033429283
Si 16.94924854139922487661 16.87134189275244366968 8.04468244000953092154
O  15.47124958571647468375 11.46932691474687260325 8.55583957689621321663
O  15.46900002353379655062 16.28599999065852799163 8.38099999641649340276
O  18.07446201043131850383 16.21289848069359607052 9.01232913908655319801
O  17.32777016197591990476 16.54921092542869587305 6.49330995478706629598
Si 16.79747638755212335582 19.93081092105950347104 7.73267174428043713164
O  15.46900003437220760816 20.63400001945370121348 8.38100000155859525819
O  15.47112709204268909957 25.45236983486982040858 8.56102281460518810263
O  18.11634118956567363057 20.83520173569828415339 8.03021783237299402458
O  17.03199996093993462409 18.45999999854714346270 8.38399999703730891554
O  16.60876852571129091984 19.83038374557014904553 6.12139245011213528613
H  -0.50423259849898016682 15.43969751458874384298 9.08178114789281920594
H  1.69998150234351630417 12.07827983328212084757 8.92297353504881485264
H  0.31527828032998961305 15.96291628496648939972 6.05244511941279395018
H  3.06011690889393328519 15.36094418756694679473 5.69970908436688894483
H  3.18226077239172244759 12.64156661597858644086 5.58570418807157320629
H  -0.12746512773890295023 20.79216845727029649993 10.01911990001361196789
H  1.69595558339301710760 24.83705368249424694227 8.91328417921832105719
H  0.06870205893298475530 21.06154561970383554126 6.26602478717869537661
H  3.18504441496284584900 24.28262459376090376395 5.58349175264536423668
H  3.04237625168318537305 21.56618417173898194505 5.70151829925428721424
H  6.86261731717440337519 9.19605253151284252056 9.37200294517338328149
H  5.50488190554893819240 11.07966287631589707985 5.83436112676054108306
H  5.53947203198030280191 16.40054319972222884871 5.95952170104862233302
H  8.05967266906701951257 15.81862337580934685377 6.04527861722150827717
H  8.86604797647282616424 13.39292814771599893220 5.95934372602046469325
H  5.51369468099566351071 20.50209974523817280101 5.95097614399734720081
H  5.50812286113635529716 25.85154711849806474788 5.83617094403605829456
H  8.84698060214060610917 23.55488086766236932590 5.94014873937590515141
H  8.01534686782823335705 21.12144571736904552495 6.01740513808670485218
H  6.85640193500850791963 27.71938859627396212204 9.38677005690347598943
H  12.07465572127049036055 8.98126917990710182949 8.71867792169957667170
H  10.73932831550569133583 11.69412446374894187784 5.80207312476542291790
H  10.72187989532627838685 16.34829358401817955837 5.91526737341994923725
H  13.31446530983507869905 15.80088677466911128988 5.88887823806742627397
H  13.52713006131180328850 11.98281384030407181740 5.82547799873629656986
H  10.69115573557493981127 20.54020170873933892608 5.84772945203545457815
H  10.74283607533242879128 25.24201418290156340163 5.79986200388551331741
H  13.53075164676156383337 24.94716799908959359300 5.82892497368053685847
H  13.39832301444147510949 21.21040223054862750018 5.80701731920909924867
H  12.07260089171549921616 27.93684520750616684381 8.73599233860264945406
H  15.82850340237124697751 11.79809416568360447286 9.38506512768820044812
H  18.14928359205081420669 15.25438693201367534868 9.00788299563883754217
H  16.62567003232683404690 16.64916104099747329315 5.84290708858650109647
H  15.82415888968830941508 25.12896139000953255049 9.39417316294049165037
H  18.51458376038421249632 20.76863316216547517001 8.90270021135719957783
H  15.82968317790831136449 20.30123648188925855607 5.78901744204499379975
P  12.27514962296719147616 13.63258121986234527867 10.87084017030455385111
O  8.67184752527183455584 13.39698205237127304201 12.94962851492446276325
O  6.67235071739939655799 11.21670564339691011924 12.03694146319454461036
O  5.60376370560873304782 13.53468329013266924221 11.26156827802619631029
O  11.14730514803318506267 13.12326301553551388679 11.90734191893067084322
O  6.03134746974127278207 16.30890928255247729339 11.85890194528410290786
O  13.47916739308324629576 12.71816746319613145033 10.89872269645658953152
O  12.66668751190850272792 15.14222274620371244680 11.22093593623922913594
O  11.64118652657150931873 13.74663816606237887186 9.49646772406979700065
N  8.14676096720595133149 15.52672659273383537482 11.94977901211372639523
N  7.65167572306024545981 17.73492959188279627369 11.18684364211590320792
N  9.38696224885416263817 18.98509932663274213382 10.28146066510044853715
C  7.57166076894797868135 12.03499943775551628278 11.32552169054746471488
C  7.00914303640944691409 13.46618161824826565010 11.18264028220103689648
C  8.89257859532874128661 12.26082111502881843990 12.11304853016541471789
C  7.65103117320081960173 14.22498029686827614171 12.37308445436282156038
C  10.09817659252313148954 12.52721976769067779856 11.19998518042063473388
C  9.48030673164220516469 15.69955879333440407208 11.75459034196009966422
C  7.22494543879597195257 16.53837503945321429910 11.67134896844894775825
C  9.90036703901935055683 16.87076690390413702403 11.25697046497948328181
C  8.94420172531265400551 17.86659228228793949711 10.94886776451798304777
H  7.75494800119036220565 11.56345643355707863975 10.35098042684449204387
H  7.32071676036613183669 13.91583651345165861812 10.22524202636531853727
H  9.08691264347187299677 11.41811702963342867179 12.79196242911213943216
H  6.90073171892482051248 14.38395605117855957644 13.15930120678781278798
H  9.82296617552462336675 13.23890486257897514122 10.40142561640732665751
H  10.47424057026247723456 11.61249410539512361140 10.71179044463225338291
H  5.76026490918031441879 11.53712312528607242257 11.85939538600842979577
H  5.38760699058995307098 14.48702349789161125670 11.36899230275567873605
H  10.15094090938357140885 14.88693572214137006426 11.97577672832597173169
H  10.93930626708086428778 17.03835405316490181349 11.03306960335893549541
H  10.22699199349643528478 18.91320655428798502840 9.70105576482448128672
H  8.71352793714360984723 19.59059861080947229084 9.81496181081169538629
H  12.78464154818708742312 15.54672264799472003460 10.33285873483481331903
*
