! PBE0 D3BJ CPCM(water) Opt ma-def2-TZVP

%pal
  nprocs 12
end

%maxcore 2500

%scf
  # A safety mechanism for difficult convergence
  MaxIter 500  # Increase max iterations from default 125
end

%geom
  Constraints
    { C 4 C }
    { C 6 C }
    { C 15 C }
    { C 16 C }
    { C 17 C }
    { C 25 C }
    { C 28 C }
    { C 40 C }
    { C 41 C }
    { C 54 C }
    { C 57 C }
    { C 59 C }
    { C 69 C }
    { C 70 C }
    { C 73 C }
    { C 81 C }
    { C 85 C }
    { C 88 C }
  end
end

* xyz -1 1
Si 0.82550255444830789031 16.90273321444780307843 8.02672835383194893666
Si 3.57859345409611950828 15.40405369627466569682 7.91524256682774929317
Si 3.61525347213513992273 12.32827188614222890806 7.79142758977786975549
O  -0.39399254802997951685 16.38822460846947492996 8.97049796234297680542
O  2.14699992899610325736 16.01900001063886236352 8.38100001484119871975
O  2.16833121962260833016 11.70013060986692465804 8.17358994255896575964
O  3.71000007458651914760 13.84500001044804307071 8.38399997023174670119
O  0.51413263662883323946 16.82449474235048469950 6.43064562656146598840
O  3.78242852312190525055 15.56381404911884480669 6.30078739993704939337
O  3.83835818325193312006 12.26151674337796748659 6.17638957659583631710
Si 0.79040521345095804406 20.03769999751825281464 8.11798346992168262659
Si 3.61646548633576081500 24.59144274113169004181 7.78977790643984580043
Si 3.57392347552433076174 21.51644693589029699865 7.91298148051966432348
O  -0.36656750918730018896 20.60916375636971054064 9.10618692062654666586
O  2.16894289328225831071 25.21986234295466289268 8.16918535718602356610
O  2.14699987441304784852 20.90100010258307250410 8.38099996412729453255
O  1.04500007222925450634 18.45999992648232179704 8.38400000867592787301
O  3.71000014039923531328 23.07499992171632996474 8.38399999820707364506
O  0.28796921258856400527 20.17942496565366283789 6.58029563313822762893
O  3.84322893308355872932 24.65740308511731271324 6.17523017744375124494
O  3.76807242767052574806 21.35886612623023239621 6.29712044108810875542
Si 6.22270347615509678008 10.74478962109476931630 7.89204932940300629696
Si 6.22770174385752284252 16.89731272838292497340 8.01236746082513562328
Si 8.87567171442405467019 15.40393509802128946262 8.07146730593755101779
Si 8.88270018411405537506 12.35331724859305069231 7.92738866725646129652
O  4.81099995309612804562 11.40399997177614466182 8.38100000517004772860
O  4.84026656347569783634 16.22821161341778761766 8.54553521744412236671
O  7.53252329471983816944 16.13444943459088420923 8.63606386342100407205
O  7.47600001180914830456 11.67100002714548878657 8.38099999506347614897
O  6.39553672263131467446 9.26420229033229780669 8.53484835406264075175
O  8.97115846415149675863 13.85656776011505897372 8.57903225740981234537
O  6.19358004089122715641 10.56500296568346897175 6.27778410221728133678
O  6.34068238160005925863 16.74021432772045869797 6.38952252890096872306
O  8.84554261890774107258 15.39082819679083158348 6.42808052169820420829
O  8.99617644831227636359 12.49448485865493196911 6.29922600211202521336
Si 6.21638834983519839028 20.01550516754898723093 8.00088210558522128224
Si 6.22275723772224331753 26.17797517799139228600 7.89639692585670527336
Si 8.88164513741373085054 24.57359632956917039337 7.91870133933579634089
Si 8.85075340123915488277 21.52825979923969867968 8.03684235121820478298
O  4.83212180640776711726 20.68555660778747196105 8.53863762139587478828
O  4.81099990592077109142 25.51600006705941225960 8.38100000505947662077
O  7.47600002611790692697 25.24899994642432687897 8.38099999405678453002
O  7.51705029343050501467 20.79206831100825070280 8.61378728848040253752
O  6.27926967827114701493 18.45840712159915497637 8.45642098844599132690
O  8.96178714260704012418 23.06765938404000593209 8.56086479267450606301
O  6.31668642104497468637 20.15996001725761033185 6.37582712207481971944
O  6.19404507085692035417 26.36676298149886221722 6.28308224223711242473
O  8.99771842566463675439 24.44641163284628149199 6.28994570370382000135
O  8.79833296081798010846 21.55854515706468532699 6.39502417919361310084
O  6.39500684263187402223 27.65560332923089958967 8.54611655720351137688
Si 11.54077773940208118120 10.90435190012901678358 7.70392439398100581371
Si 11.54475443644537691057 16.89738978731071838979 7.91695221975753860022
Si 14.20353636779983830252 15.39713050024965212970 7.87470928549655457829
Si 14.23582000546047154899 12.29374205727154567569 7.89821818490581684102
O  10.13999999443510624531 11.40399999022641175372 8.38099999998976130655
O  10.19474380605396746091 16.23030440243677219314 8.55061143341925422590
O  12.85059861184698881686 16.10098625528505067450 8.48098101068035958860
O  12.80500001833899403891 11.67100000365917722434 8.38099999911838011712
O  11.70002193810664614659 9.30021622827963234670 7.89283361195503907481
O  14.36799996619393837705 13.84500001097802623917 8.38400000050659421902
O  11.52647381252630687243 11.21103037747620057019 6.10107396451269234916
O  11.53153702039206507379 16.72019065384241187644 6.29171038784878255967
O  14.13836303974277619488 15.44005711152897575289 6.24791031922128681231
O  14.36592144614937005542 12.11520262477894149811 6.28747362213574589873
Si 11.52107502489896972975 20.04305294434251649704 7.85872171327448487688
Si 11.54104380239207827685 26.02008594828916088204 7.70790688202718410338
Si 14.23698927203610686831 24.62924591767031756717 7.90140958601787790627
Si 14.21263218858607935147 21.53527649078097994106 7.85646399441668918939
O  10.17156468469722341297 20.69915965967712523366 8.49678381323192333241
O  10.14000000001342272071 25.51600001024518959980 8.38100000360093488894
O  12.80500000545176320088 25.24900000657456899944 8.38100000765176211814
O  12.80500002202746401281 20.90099992953240715110 8.38100001439989483742
O  11.64364372668909552999 18.47899258315547044162 8.30700784468858799414
O  14.36799991860414493772 23.07499998999197643457 8.38400002250502573986
O  11.49649712457184236314 20.16818414694973427004 6.23103186611351578250
O  11.52979969083827072041 25.72254299511107689113 6.10357093074117162956
O  14.36785320266353060958 24.80206541933113939535 6.29032779715826340095
O  14.23459250738216042009 21.46715807437434264671 6.21933352261771865699
O  11.70097780540379694969 27.62284072038842452912 7.90688338342797170100
Si 16.94924853795045294191 16.87134190586787241273 8.04468243461751875145
O  15.47124958231976243894 11.46932692184843816108 8.55583957735876765582
O  15.46900003543686707985 16.28599999002517506597 8.38100000292202018670
O  18.07446201089469894896 16.21289847872417411168 9.01232914030681087070
O  17.32777016188981278333 16.54921092148164873947 6.49330995610843686450
Si 16.79747638409808985216 19.93081091239370294943 7.73267174249836486410
O  15.46900003668413958735 20.63400001739521627542 8.38100000434831038376
O  15.47112709044067813124 25.45236983511671979841 8.56102281464027825564
O  18.11634119040923707189 20.83520173824921073447 8.03021783297826097225
O  17.03199996135928273588 18.45999999792296364376 8.38399999810538965050
O  16.60876852693885652457 19.83038374808794301885 6.12139245026870604249
H  -0.50423259851612911575 15.43969751417815849948 9.08178114826410087801
H  1.69998150339588427471 12.07827983443108088579 8.92297353571180273946
H  0.31527828102573351998 15.96291628488700986566 6.05244511919792671506
H  3.06011690873984232297 15.36094418631473601522 5.69970908371932960534
H  3.18226077413901276003 12.64156661880492116268 5.58570418816849745269
H  -0.12746512782866936675 20.79216845752846865025 10.01911989987954498815
H  1.69595558367745358197 24.83705368299732185733 8.91328417967800845645
H  0.06870205804555240547 21.06154561967940708200 6.26602478752704961096
H  3.18504441480897693140 24.28262459398708728031 5.58349175261114716307
H  3.04237625295811842108 21.56618417226807338238 5.70151829985415758983
H  6.86261732005388935818 9.19605253052986526541 9.37200294392480870442
H  5.50488190496928631035 11.07966287495125712326 5.83436112711833043676
H  5.53947205637678585788 16.40054318792264709259 5.95952170197414332620
H  8.05967270759116338752 15.81862342186620651319 6.04527862828694928510
H  8.86604803728096513282 13.39292818084941139034 5.95934373446458565127
H  5.51369467383215017264 20.50209974140828350642 5.95097614217830805927
H  5.50812286202622392040 25.85154711714660180633 5.83617094396356073105
H  8.84698059746064124909 23.55488086762398580731 5.94014873900736262158
H  8.01534686521650385771 21.12144571449147534281 6.01740514219101285676
H  6.85640193567111833062 27.71938859590896342411 9.38677005630617955489
H  12.07465572202237069632 8.98126917935434931906 8.71867792183698320230
H  10.73932833029388334012 11.69412444781839788277 5.80207311873992814810
H  10.72187988600104624481 16.34829358827623124739 5.91526737367973343140
H  13.31446530488562984829 15.80088676079198251045 5.88887823866365067715
H  13.52713006146539953534 11.98281383956366141774 5.82547799856000203533
H  10.69115572778767742079 20.54020170724026073117 5.84772945220217366114
H  10.74283607549669028458 25.24201418268134489153 5.79986200402942042587
H  13.53075164699894017417 24.94716799880337276818 5.82892497294304323674
H  13.39832301387490076650 21.21040224605908264266 5.80701731826576850182
H  12.07260089159897553657 27.93684520736380960670 8.73599233873336977751
H  15.82850340183908777192 11.79809416302380498109 9.38506512867457232119
H  18.14928359241595856588 15.25438693193882500054 9.00788299567356887110
H  16.62567003253111153072 16.64916104293875065423 5.84290708838433747729
H  15.82415888945913806651 25.12896139047212784590 9.39417316314067818439
H  18.51458376064795530169 20.76863316158141614665 8.90270021080264939428
H  15.82968317590604812040 20.30123648134353331329 5.78901744259826500638
P  14.02950298572298493127 17.04534824683277349777 11.66967027830381553599
O  10.07315417311989413918 17.80455489183364292671 13.02750882534198950680
O  7.71732970681545094038 19.92448744549545480709 12.36084772848191803973
O  7.96730761024368749901 18.08167755006303778487 10.71133422937313106615
O  12.46651709766184445982 16.90817369935831848693 12.01422548602791273709
O  14.79750365974955883530 17.30042262919747031447 12.94485230880941983855
O  14.19471249516399424806 18.32451684517922529949 10.70716045388689074969
O  15.18277741831006011353 21.04596010628126023789 11.64633521093434076477
O  14.50140436553711253964 15.79011407622690299490 10.97452921570444850374
N  11.20490304233731926331 19.84219267557546118042 13.39837027798507129717
N  13.41743915066957271165 19.61870264648659656359 13.52734188783994007110
N  11.13341974648417398441 21.65330445712713114403 11.71719317361354661955
N  13.32140318220863761667 22.24812796123892155720 10.99853679466017908339
N  11.41274155042066063004 23.29761787058460953403 10.11346448910941120403
C  9.07672188791112866113 19.74098159051829526334 12.03517085123764651655
C  9.24200024455106472487 18.63150593695163337316 10.95208525898222085004
C  9.88208095083112070256 19.20484495707058414382 13.24776267515852978818
C  10.19161638926278001804 17.59331544133531721741 11.62156467216776789542
C  11.67079954372420047548 17.72161442681763432461 11.21374941604221397995
C  11.75309719497490235085 20.81508832163099498302 12.58230779234358642782
C  12.27562976094253244241 19.16022989715376212416 13.95802236433900844759
C  13.13526408255339994469 20.64479697670506652685 12.69011693157487741246
C  13.99770893290859063995 21.32959870959510695343 11.77241678981217098965
C  11.94316064035053770453 22.38788799369668680583 10.99074519129351656943
H  9.44856701109362795421 20.72259052530946377146 11.71534560983717909721
H  9.64887717616035267554 19.03027163530138210490 10.00978822420715097508
H  9.30425699057354549382 19.32540842727984298222 14.17274442909398501911
H  9.83598949021958190997 16.57015736195837263267 11.43359023902700855047
H  12.01533083826267045424 18.75634819146344867136 11.35442188918437977918
H  11.85282020353565357595 17.44617106993811006532 10.16491834573401398245
H  7.16918976625998283225 19.56968304629939225947 11.62830413793409256584
H  7.96053890126040997188 17.39342892673652940516 10.00666257398066427697
H  12.18210425232451221689 18.24464267531358174779 14.52749012958656571470
H  13.81232204814265074333 22.63199529549657640359 10.19433723675189717994
H  11.97747847623185180055 23.90922146427948646874 9.53361339697695342466
H  10.47858746630198645278 23.19219814580491600964 9.73344236592082800996
H  14.65221733405573800724 19.10288150282339714181 11.08436441331904198648
*
