! PBE0 D3BJ CPCM(water) Opt ma-def2-TZVP

%pal
  nprocs 12
end

%maxcore 2500

%scf
  # A safety mechanism for difficult convergence
  MaxIter 500  # Increase max iterations from default 125
end

%geom
  Constraints
    { C 4 C }
    { C 6 C }
    { C 15 C }
    { C 16 C }
    { C 17 C }
    { C 25 C }
    { C 28 C }
    { C 40 C }
    { C 41 C }
    { C 54 C }
    { C 57 C }
    { C 59 C }
    { C 69 C }
    { C 70 C }
    { C 73 C }
    { C 81 C }
    { C 85 C }
    { C 88 C }
  end
end

* xyz -1 1
Si 0.82550255382988702024 16.90273321016609742173 8.02672835544518470385
Si 3.57859338138669258456 15.40405380625177400589 7.91524250517490646217
Si 3.61525346675570169452 12.32827187508539878991 7.79142758566353244021
O  -0.39399254767575975222 16.38822461005165820325 8.97049796292188794666
O  2.14699993359322327535 16.01900000277971258811 8.38100000653231624881
O  2.16833123113084447198 11.70013062335371856193 8.17358994528215099251
O  3.71000008070306819263 13.84500000162633881473 8.38399999156318465054
O  0.51413263858381874627 16.82449474398795530306 6.43064562611526291391
O  3.78242852813990904082 15.56381403631589854797 6.30078740487639965551
O  3.83835818509249637742 12.26151674663636725882 6.17638957743891303664
Si 0.79040521589483603293 20.03769998871639756999 8.11798346387752189912
Si 3.61646549177070486536 24.59144272804205755278 7.78977791146851572535
Si 3.57392343693015757111 21.51644695563710030228 7.91298142520432090663
O  -0.36656750963883055761 20.60916375717957294000 9.10618692067505008936
O  2.16894289268251672098 25.21986235007581456102 8.16918534854114497534
O  2.14699987511996592815 20.90100012084257130596 8.38099999959636043911
O  1.04500007394779625969 18.45999992976318893056 8.38400000828818647847
O  3.71000014038274539274 23.07499993306538499382 8.38400001137906158988
O  0.28796920955608129589 20.17942496576822364318 6.58029563350548674094
O  3.84322893211288274529 24.65740308889583687346 6.17523017488412406806
O  3.76807243052848850340 21.35886613514804110991 6.29712046533803615489
Si 6.22270347607128648804 10.74478962218154975972 7.89204932876524800633
Si 6.22770163492371331415 16.89731245733527131847 8.01236696943836967932
Si 8.87567161540560256583 15.40393480199487541427 8.07146742772199132787
Si 8.88270018496926638818 12.35331725004711600491 7.92738867713239780954
O  4.81099995439060723612 11.40399997507245188899 8.38100000635823860762
O  4.84026670656566615492 16.22821146887106635859 8.54553538471222218220
O  7.53252352263947599909 16.13444984725021313920 8.63606398894414795109
O  7.47600000953343268861 11.67100002282099957540 8.38099999554930796819
O  6.39553672187295951801 9.26420229035320197397 8.53484835357594562311
O  8.97115846356950719098 13.85656778531938471133 8.57903217571341158987
O  6.19358004039137988173 10.56500296536624361465 6.27778410204530512573
O  6.34068243867917935574 16.74021440532268911738 6.38952262771131884733
O  8.84554266021664581388 15.39082829592155299281 6.42808049952604410038
O  8.99617644368140467748 12.49448485875391412492 6.29922600348501138257
Si 6.21638881728283276829 20.01550514581504458533 8.00088198415104479011
Si 6.22275724073119462787 26.17797518927315891801 7.89639692962125483433
Si 8.88164518325414853450 24.57359630957691720710 7.91870130473624023182
Si 8.85075338025406033182 21.52825974999071689808 8.03684225432462362448
O  4.83212173586049420493 20.68555656611355786367 8.53863766004213431415
O  4.81099990548103129129 25.51600006925568919769 8.38100000322424421029
O  7.47600002111164130270 25.24899992928576963891 8.38100000607233575067
O  7.51705023228142188430 20.79206835333397762611 8.61378731731270974592
O  6.27926926345912583827 18.45840717963100274801 8.45642117159905382096
O  8.96178709907769643905 23.06765939903264239774 8.56086484129883196204
O  6.31668638296130513510 20.15996001028931416954 6.37582715812382883058
O  6.19404506942907850942 26.36676298178346300460 6.28308224120869063256
O  8.99771842896909568310 24.44641164124019283577 6.28994570717310708119
O  8.79833296807640152792 21.55854514507759134290 6.39502419643522568293
O  6.39500684251850426421 27.65560332886067129721 8.54611655651377866150
Si 11.54077773919840055328 10.90435189844881946897 7.70392439322599464901
Si 11.54475443080255558925 16.89738979248521388854 7.91695223101749689931
Si 14.20353636860418156118 15.39713050109865122295 7.87470928491268384875
Si 14.23581998976355222908 12.29374207800825402614 7.89821818521730989460
O  10.13999999105285709788 11.40399998830985772713 8.38099999810105877884
O  10.19474381202780044475 16.23030442954312135839 8.55061142281284247701
O  12.85059861246442380889 16.10098624695272562235 8.48098100731102988448
O  12.80500002340237841736 11.67099999745965632769 8.38099999978357246277
O  11.70002193754121400104 9.30021622959733029745 7.89283361215513057374
O  14.36799996802214351987 13.84500000762729499115 8.38400000048025795252
O  11.52647381281305527523 11.21103037767643684219 6.10107396500360366076
O  11.53153701911219286558 16.72019065528924031128 6.29171038781362934600
O  14.13836303990081688653 15.44005711205604214342 6.24791031966251075858
O  14.36592144830783190912 12.11520261950790100514 6.28747362159274469917
Si 11.52107503950172961993 20.04305291384634912788 7.85872172375978461645
Si 11.54104380832018073022 26.02008594515943684655 7.70790694487213201569
Si 14.23698922954044476796 24.62924592089013131613 7.90140960227244892877
Si 14.21263216527843908921 21.53527643880189046399 7.85646401852686881995
O  10.17156468755589493469 20.69915965376839039891 8.49678382560011868918
O  10.13999998483312836584 25.51600003575461883543 8.38099997024342613372
O  12.80500001462138470743 25.24900001322974674167 8.38099998983209104608
O  12.80499999043101411189 20.90100000101826438481 8.38099999859434419136
O  11.64364373696288446070 18.47899258263858968121 8.30700783353646698970
O  14.36799998857378035666 23.07499998703343990769 8.38400000158643621262
O  11.49649711845790633902 20.16818414131093817332 6.23103186571926581649
O  11.52979968782210562495 25.72254299123575904673 6.10357091980867139114
O  14.36785320353952144501 24.80206541524607999349 6.29032779263366759182
O  14.23459250743425030805 21.46715809723703927148 6.21933351947421009243
O  11.70097780611395776873 27.62284071774300286961 7.90688337847933642166
Si 16.94924853755955496126 16.87134190550560930433 8.04468243461662879668
O  15.47124958849110853976 11.46932691222922073848 8.55583957893217039725
O  15.46900003532996770161 16.28599999080648075278 8.38100000293284885799
O  18.07446201111407191320 16.21289847866743372151 9.01232914032019927220
O  17.32777016192188312971 16.54921092142835448158 6.49330995613455197457
Si 16.79747638789244845725 19.93081091981280650316 7.73267174433150472623
O  15.46900003459528605276 20.63400001667213246037 8.38100000138458156584
O  15.47112709159459598141 25.45236983329780855456 8.56102281347055438232
O  18.11634118972490625765 20.83520173612977544053 8.03021783237743136397
O  17.03199996100255475540 18.45999999636363142486 8.38399999772572002144
O  16.60876852596835817621 19.83038374608573306546 6.12139245005910126451
H  -0.50423259844748358205 15.43969751410631729982 9.08178114770851685478
H  1.69998150237556711062 12.07827983216597900196 8.92297353480816468618
H  0.31527827994084134389 15.96291628459772837800 6.05244511965302667278
H  3.06011690713658079943 15.36094419275482536591 5.69970908540981913148
H  3.18226077309100663371 12.64156661676811665984 5.58570418802586665663
H  -0.12746512758713102187 20.79216845790207912614 10.01911990028515475615
H  1.69595558994151041077 24.83705367243053885318 8.91328418861473181778
H  0.06870205970418297170 21.06154561973621852644 6.26602478709476429231
H  3.18504441556605666364 24.28262459275395457325 5.58349175284456133994
H  3.04237624884291957272 21.56618416823281947359 5.70151829724492920093
H  6.86261732043643313261 9.19605253053555671272 9.37200294390303945136
H  5.50488190523018339206 11.07966287516433112614 5.83436112707396681287
H  5.53947203386369846356 16.40054318007209488428 5.95952169792579944385
H  8.05967268721461671532 15.81862339137166628689 6.04527862863471021626
H  8.86604804007047420100 13.39292817239447508371 5.95934373216588575417
H  5.51369468246080352003 20.50209974769227017077 5.95097613255391522102
H  5.50812286214817525831 25.85154711611623667977 5.83617094378910028496
H  8.84698059564329142290 23.55488086750763443433 5.94014873852283731281
H  8.01534686728070866479 21.12144572415062526716 6.01740514232374401615
H  6.85640193546597132013 27.71938859553004164127 9.38677005614002979428
H  12.07465572218420035711 8.98126917919888789754 8.71867792176660927339
H  10.73932833082954196868 11.69412444765424297088 5.80207311843213346947
H  10.72187987836412226272 16.34829358605111337965 5.91526737548206238415
H  13.31446530460204868973 15.80088676034744921139 5.88887823854662251222
H  13.52713006074066015572 11.98281384209780497940 5.82547799866499538268
H  10.69115572729957541753 20.54020171369466396527 5.84772945266067267767
H  10.74283607060918832588 25.24201418110293460018 5.79986200506733151627
H  13.53075164923078332890 24.94716799981601340619 5.82892497397618392085
H  13.39832301749346576969 21.21040223622662779235 5.80701731872326920580
H  12.07260089101346878238 27.93684520574434770879 8.73599233866733904108
H  15.82850340192686644514 11.79809416518690667885 9.38506512789620828130
H  18.14928359240512278916 15.25438693195042105799 9.00788299565904893029
H  16.62567003253190023315 16.64916104303632948813 5.84290708839153349885
H  15.82415888918124302620 25.12896139090644709313 9.39417316424608905834
H  18.51458376038630149196 20.76863316211411358836 8.90270021120782040214
H  15.82968317763921817232 20.30123648162999572264 5.78901744212163382741
P  5.62430065654118571672 23.28613605534537001063 10.86754490625417091110
O  9.24013446184728515220 23.54565543822505446769 12.93480006928205128247
O  11.22250804085842545987 25.72416742723871152521 12.08467443252851225566
O  12.30688006879570650653 23.44193620801749489146 11.23280751105655106414
O  6.76450448506981416585 23.78189068601742306441 11.89753665506088964321
O  11.91008411634163621784 20.67126627513885139820 11.80287413015598474431
O  4.42820242492963345171 24.20786231791245057821 10.92599866600047064935
O  5.22236621107750842441 21.78024619757810853571 11.22791723307546085664
O  6.22767929130427155826 23.18264609132188880380 9.48179544589726752690
N  9.78702057147390291902 21.42995174439227668017 11.92668944790077389939
N  10.29319812142291823420 19.22413390940136679319 11.17083931743715474738
N  8.55445442250725207600 17.93800425543433618714 10.33134709961728958660
C  10.33348949876167210959 24.93289493277705304308 11.33102833428066702481
C  10.90033939670687423984 23.50622909662939719055 11.16430848096005234993
C  9.00585536027970157136 24.68364539783247835203 12.10534239457473049129
C  10.27069037045104238359 22.73429522968226734747 12.35244912186042753888
C  7.80097856741043749196 24.40392067926568131497 11.19267219341725727588
C  8.45270737620685608249 21.24460816559290066152 11.75089559732924016089
C  10.71584435467683960042 20.42811032064234666450 11.63808654706597067729
C  8.03580285345248945816 20.06508397661747267193 11.27210266499273672025
C  8.99716585739261098809 19.07483930077872003039 10.96534306603901676169
H  10.17402146961835285310 25.43549333359321451553 10.36661680952227193586
H  10.58300816181851011777 23.06506866726111226740 10.20480765514103183023
H  8.79832237936383521060 25.51764344467470024824 12.79101029747875628573
H  11.02459391081679207502 22.58096786612948392303 13.13635146835614264660
H  8.08323894136852239001 23.70752796405952267378 10.38347210395808062344
H  7.40652029749823093141 25.31872173954320359712 10.72122578324141883854
H  12.13683985481342020307 25.40829857817518444563 11.90971617325246967312
H  12.52426715069153217996 22.48935438642622841598 11.33587045398542514363
H  7.77877774302770941262 22.05404917599583924925 11.97314429710807637264
H  6.99577276333867814628 19.88692960480775440146 11.06137346463851756084
H  7.70173847454227011866 17.99366747856743842249 9.76913768589165698586
H  9.22989060084868029321 17.35294257422668451341 9.85138182484905478020
H  5.04684131247320877378 21.36196869161198463871 10.35761571713585560417
*
