! PBE0 D3BJ CPCM(water) Opt ma-def2-TZVP TRAH

%pal
  nprocs 8
end

%maxcore 2500

%scf
  # A safety mechanism for difficult convergence
  MaxIter 500  # Increase max iterations from default 125
end

%geom
  Constraints
    { C 4 C }
    { C 6 C }
    { C 15 C }
    { C 16 C }
    { C 17 C }
    { C 25 C }
    { C 28 C }
    { C 40 C }
    { C 41 C }
    { C 54 C }
    { C 57 C }
    { C 59 C }
    { C 69 C }
    { C 70 C }
    { C 73 C }
    { C 81 C }
    { C 85 C }
    { C 88 C }
  end
end

* xyz -1 1
  Si          0.83099667555847     16.90573289770150      8.01335567383395
  Si          3.58311067897717     15.40745050690593      7.92611780727550
  Si          3.61676420276693     12.32940383912527      7.78967722834459
  O          -0.40171866919731     16.38374183556259      8.93599472464791
  O           2.14699989053989     16.01899995829261      8.38099998069379
  O           2.16834886353078     11.70128514878706      8.16671988358694
  O           3.71000009623629     13.84500002216281      8.38399999895833
  O           0.54187874618928     16.83812557411968      6.41260268967102
  O           3.80313234797605     15.57678948132446      6.31461259648720
  O           3.84323767030890     12.26507718642161      6.17483522413195
  Si          0.78774977900521     20.04117502416388      8.14063041019275
  Si          3.61576152411450     24.59002497748195      7.79277168368129
  Si          3.57856479613341     21.51347366262230      7.92796703864174
  O          -0.34485370127825     20.60204792125509      9.16367140380087
  O           2.16904879811519     25.21828998978923      8.17829910882160
  O           2.14699987774872     20.90100011079888      8.38099996847596
  O           1.04500001406318     18.45999995620715      8.38400002704022
  O           3.71000009943366     23.07499995688948      8.38400001552043
  O           0.24665140642856     20.19340446810201      6.61667897092841
  O           3.83763598842681     24.66202525046332      6.17722171749062
  O           3.77961043416440     21.35119077825866      6.31109638422128
  Si          6.22288900163639     10.74551214326061      7.89091641478248
  Si          6.22838326503144     16.89965227402531      8.05981759841268
  Si          8.87164269988197     15.39980906868331      8.12362704810790
  Si          8.88246204274210     12.35560866189041      7.93648634122650
  O           4.81099992249680     11.40399995407838      8.38100000694979
  O           4.83511279488738     16.23067512473406      8.57572763427054
  O           7.52444479647822     16.12308894043909      8.68600380991555
  O           7.47600002227168     11.67100002166609      8.38099997858303
  O           6.39570950843909      9.26340398156198      8.53005931898780
  O           8.96446669202217     13.84787562970753      8.61075104229056
  O           6.19564099474453     10.56906287669504      6.27630125684463
  O           6.35576479188655     16.74737492173086      6.43704342821263
  O           8.85560959558620     15.41619633105291      6.47996861325594
  O           8.99906727523176     12.51690053572797      6.31061652352492
  Si          6.22531275283714     20.01118840557809      8.02471105951457
  Si          6.22220296754084     26.17793735187491      7.89717852276568
  Si          8.88119261365596     24.57444957468745      7.91962256912634
  Si          8.86247131013621     21.52328656691916      8.06832417638844
  O           4.83944317142831     20.68338119142213      8.54602873826717
  O           4.81099990293113     25.51600005755251      8.38100000203097
  O           7.47600006288062     25.24899992701741      8.38100001422087
  O           7.52509446849889     20.79102311268950      8.63461935555220
  O           6.28577915838809     18.46035740797895      8.50386737593651
  O           8.96840920586653     23.07073489209045      8.56461951435552
  O           6.33558733503090     20.13860562629962      6.39916237625347
  O           6.19418355456249     26.36649910111259      6.28372746906184
  O           8.99742701953720     24.44359594544003      6.29122866586123
  O           8.84249677852853     21.52030063348391      6.42639484113957
  O           6.39614136897502     27.65520424584626      8.54705506600821
  Si         11.54038008775706     10.90749128216401      7.70093959540611
  Si         11.53294925768596     16.88876235406568      7.99240296741938
  Si         14.19039563186127     15.40082632938486      7.89039734241877
  Si         14.23518738538558     12.29524709259583      7.89693088133974
  O          10.14000006129543     11.40400000725488      8.38100004087889
  O          10.19109165029283     16.20958597841036      8.62839682217343
  O          12.85142736105988     16.10150544337186      8.53678240346719
  O          12.80499993574056     11.67100002406255      8.38099996719364
  O          11.69957028389686      9.30243070625481      7.88218351933739
  O          14.36800008362736     13.84500001364797      8.38399993468022
  O          11.52425325800168     11.22100855797585      6.09940865895960
  O          11.50149009401041     16.73502437773412      6.36505642591600
  O          14.06041115257978     15.43769587802129      6.26938711955311
  O          14.36390133159605     12.11729272385583      6.28600583902280
  Si         11.53163947691114     20.03209218557988      7.97068565774858
  Si         11.54106170851360     26.02306107011152      7.71168582003971
  Si         14.23235476555469     24.62566933316057      7.89309639816978
  Si         14.18367152667346     21.52190760460299      7.90647114383984
  O          10.17723071954253     20.70812749049910      8.57269123126748
  O          10.14000003458712     25.51600009027460      8.38099996976537
  O          12.80499992393992     25.24900000953388      8.38100001268719
  O          12.83357241536823     20.83854506213423      8.53207173002169
  O          11.61730084262524     18.46434584022319      8.40415453869768
  O          14.36800000664931     23.07499991744018      8.38399998090178
  O          11.54045580177661     20.17962761547764      6.34208339172064
  O          11.53011553251911     25.73214326518502      6.10592947326204
  O          14.35156625771907     24.78464919931176      6.27998135999702
  O          14.10837777986979     21.43050755508472      6.27398205920498
  O          11.70104257340850     27.62473425693556      7.91700242980066
  Si         16.92172204094146     16.88895266540208      7.96304248579029
  O          15.47146742107246     11.46966633859930      8.55198861408260
  O          15.46900005871515     16.28600009467060      8.38099996105833
  O          18.08754111593011     16.11891753683209      8.78907382137829
  O          17.19036277053083     16.72744921251537      6.36436470848915
  Si         16.71946400310140     19.87967291544789      7.65283922513317
  O          15.46900010274649     20.63400009565894      8.38100001290523
  O          15.47416140219390     25.45013319076489      8.53616335221691
  O          18.04642994457474     20.81579954881933      7.68713197668924
  O          17.03199985995055     18.45999995229954      8.38399999524961
  O          16.35710916337431     19.57174894512485      6.09182295807549
  H          -0.50832000880101     15.43456890028791      9.04500570544940
  H           1.70287016543970     12.07401151315313      8.92065789547986
  H           0.34167574936192     15.98008144457377      6.02718521313290
  H           3.08814427496852     15.37251803684078      5.70526325659719
  H           3.19163309838118     12.65342628960142      5.58451298921540
  H          -0.06938616271316     20.81603373043047     10.05949764566836
  H           1.70148537804923     24.83194879743433      8.92407894382256
  H           0.02666376328078     21.07893779671591      6.31284205885239
  H           3.18545099976373     24.27283455061403      5.58815302755719
  H           3.05435656923949     21.55917795945826      5.71532785077993
  H           6.84830529114527      9.19464094158048      9.37510587374390
  H           5.50719447292803     11.08459326300803      5.83340128133920
  H           5.55844506077619     16.40981726263451      5.99800318809180
  H           8.06712449072199     15.84357439649692      6.10033875238880
  H           8.87184530427488     13.41891538917469      5.97983621785531
  H           5.53617465153839     20.48278447025259      5.96935093092219
  H           5.50671521623197     25.85248881027531      5.83775060219956
  H           8.85684449733669     23.55215051265482      5.93940152980929
  H           8.06386271047404     21.08182759567838      6.04205240716633
  H           6.85061432811098     27.71739473261578      9.39164176389949
  H          12.07892976011653      8.97962065048167      8.70433965614646
  H          10.73995852143140     11.71101461445965      5.80441963698051
  H          10.68608169912234     16.36593697395128      5.99592751565311
  H          13.23184115975045     15.82144319898519      5.94490040260287
  H          13.52433615731192     11.99024244498970      5.82397077996309
  H          10.72842342722324     20.52335301446679      5.94454334068022
  H          10.74433307872436     25.25187992895231      5.79939687034775
  H          13.51297671586861     24.94330878952577      5.82555618591368
  H          13.25811928959520     21.11141718501564      5.93138759065900
  H          12.06562735125278     27.93595787599734      8.75030630313627
  H          15.82967840679736     11.79772129499558      9.38107115308019
  H          17.94107241371742     15.19334553548265      9.00211452273572
  H          16.81263897829559     17.42829804522108      5.81763494214621
  H          15.81088155791968     25.15215688582098      9.38552731063846
  H          18.43007286412508     21.02441493369661      8.54378571020263
  H          15.61194069805366     20.08537656519620      5.74689307983800
  N           6.83043854006519     19.53322057534152     12.06247970022126
  C           5.65391837684892     18.83401130642447     11.89887629235358
  N           4.55129452317168     19.61528761757351     11.68528118108257
  C           4.49505786528694     20.99888902602370     11.59543102238395
  C           5.77460575084401     21.63453424031276     11.72578026307120
  C           6.87531265112977     20.89018897495214     11.94859147928559
  O           5.59418670472658     17.61721927129578     11.93838723987415
  O           3.41933567258301     21.55486066800718     11.41749378795877
  C           8.03187754825612     18.74423092173981     12.35218948383133
  C           8.79350530934271     18.28929486099690     11.12210820799787
  C          10.20061439758511     18.14812004326993     11.67093292617797
  C          10.27017297505933     19.30819175990797     12.65340953664504
  O          10.37469913557493     16.94468327475776     12.39710933070207
  O           8.92498492113870     19.52820530608554     13.10200756464903
  C          10.84284483811679     20.55092487610515     12.01398918099671
  O          10.96522926353188     21.58743522246815     12.97009975933212
  P          10.51804668637854     23.09278863342038     12.56257226372083
  O           9.09616129827233     23.08560254480829     12.10702891123743
  O          10.96386545927773     23.95388515418859     13.68687432799543
  O          11.46780640616186     23.41518494991637     11.28504791001101
  H           3.68232558205000     19.11277185231822     11.56058880715554
  H           5.84118853611418     22.70912622714142     11.64236397383258
  H           7.85117736509553     21.35134585732155     12.06331621739740
  H           7.68647470659562     17.89329331745961     12.94188711625754
  H           8.40394879034714     17.36449921304793     10.70316065715136
  H           8.76305939375200     19.06160915678153     10.35137617383103
  H          10.96094255771597     18.24056916779386     10.89172887438820
  H          10.86885029234213     19.03446127781265     13.52629042716307
  H          10.24853790726824     16.21069775051714     11.78579704176162
  H          11.83576845989042     20.31338009877807     11.61667337992260
  H          10.20726838552255     20.86423430699377     11.18110170563200
  H          11.00682764125612     23.24702264263302     10.45556675651493
*
