! PBE0 D3BJ CPCM(water) Opt ma-def2-TZVP

%pal
  nprocs 10
end

%maxcore 2500

%geom
  Constraints
    { C 4 C }
    { C 6 C }
    { C 15 C }
    { C 16 C }
    { C 17 C }
    { C 25 C }
    { C 28 C }
    { C 40 C }
    { C 41 C }
    { C 54 C }
    { C 57 C }
    { C 59 C }
    { C 69 C }
    { C 70 C }
    { C 73 C }
    { C 81 C }
    { C 85 C }
    { C 88 C }
  end
end

* xyz -1 1
  Si          0.82878262067302     16.90195040354110      8.02440634270003
  Si          3.58250423938206     15.40544997964221      7.92542155812930
  Si          3.62313190461498     12.33346111841248      7.78400753751817
  O          -0.39445107167019     16.38612603602925      8.96383972802351
  O           2.14700557553811     16.01900956337465      8.38099715491394
  O           2.17164691880090     11.70366492385318      8.15095220668632
  O           3.71000608957407     13.84500014547977      8.38397909188149
  O           0.51692046310985     16.82761537361808      6.42774962769809
  O           3.77610865315882     15.56052557978916      6.30558732688730
  O           3.86271302522470     12.26186080437957      6.17109096732232
  Si          0.79440075203782     20.03572565932791      8.10284773462140
  Si          3.61497748122326     24.59134345138481      7.79214190404516
  Si          3.57961841198878     21.51286242695994      7.92493751898435
  O          -0.37740993298966     20.61346217377708      9.07008294125939
  O           2.16843037634521     25.21977336191133      8.17571044212050
  O           2.14699758258441     20.90099628250761      8.38099626213867
  O           1.04502619600906     18.46001508918830      8.38402538208447
  O           3.71000362806276     23.07499897692916      8.38397626189422
  O           0.31433633551121     20.17169166401884      6.55761703653871
  O           3.83740440011105     24.65747542633202      6.17667083457024
  O           3.79463589349595     21.34274221067972      6.31304606106663
  Si          6.22277424418502     10.72753711638318      7.92557167833773
  Si          6.22566260849399     16.91673832590750      7.99453486933878
  Si          8.86279406522378     15.39840161624542      8.00047367909468
  Si          8.87829844065660     12.33782379051355      7.90093197197278
  O           4.81101547767837     11.40399093046054      8.38101801881856
  O           4.84601024415588     16.24191238345336      8.52527578285036
  O           7.53642472162146     16.13775656836784      8.57677545741653
  O           7.47600027554409     11.67098981125560      8.38099781193724
  O           6.39595965499527      9.27218563614871      8.62310423288834
  O           8.95365092946596     13.85395554841589      8.51272715657659
  O           6.20088887517670     10.48474463539195      6.31900241172565
  O           6.31542704536871     16.80361524961548      6.36574796597158
  O           8.83274835575537     15.38668731448322      6.36039009272508
  O           8.99479728300884     12.43534455246369      6.27030474502087
  Si          6.22866541284678     20.02879671208085      8.05629470180702
  Si          6.22265700371864     26.17261539198043      7.88803670547711
  Si          8.88261289687181     24.56151267732261      7.94262346757722
  Si          8.86629447063301     21.51926540494852      8.15101856170372
  O           4.83171271283461     20.68848232139566      8.57237661637778
  O           4.81101477842034     25.51600831866847      8.38101914908332
  O           7.47599929210216     25.24901066571083      8.38099873682020
  O           7.51731495543808     20.79817453362872      8.70685721232573
  O           6.28889018271718     18.46540640115424      8.48321905699311
  O           8.96642005417703     23.07316344661395      8.62790631115394
  O           6.36751880783250     20.20331139629353      6.43642112504637
  O           6.19577842053979     26.34241900025944      6.27274240373942
  O           9.00041047848683     24.38953485931063      6.31817649710131
  O           8.86588213540026     21.49537068050350      6.50717701911933
  O           6.39604294238371     27.65701473954529      8.52167936459073
  Si         11.53984366234733     10.89127134159996      7.71105631121559
  Si         11.54714090435906     16.90182641882289      7.93250941956315
  Si         14.19788891923507     15.39794316300698      7.87692417203541
  Si         14.23897239374807     12.29569421847549      7.89155184974285
  O          10.13999861788037     11.40400535930334      8.38100365374558
  O          10.18785096967390     16.20231758366660      8.49525820063154
  O          12.84951861403759     16.10197872338806      8.49566287187047
  O          12.80500929168283     11.67100473887822      8.38100778837066
  O          11.70326845059829      9.29212328780259      7.92564582282981
  O          14.36799633848729     13.84501086582960      8.38400108560377
  O          11.53397807182744     11.17733915759838      6.10595836615125
  O          11.57757730927746     16.80080278826393      6.30060639616868
  O          14.09342354128746     15.41397211580298      6.25397660469053
  O          14.36110105876525     12.11327319016601      6.28242324515070
  Si         11.52387666375948     20.03916141374432      8.01092186310635
  Si         11.53925220227814     26.01173290159152      7.70017084052444
  Si         14.22955920526478     24.62294809700592      7.88506231689327
  Si         14.17883430648195     21.51916210465827      7.91599056029521
  O          10.17686890109591     20.69512892824268      8.67002151724697
  O          10.13999858435497     25.51599645680326      8.38100309538954
  O          12.80500952099842     25.24899779483862      8.38100212204841
  O          12.83540811560796     20.83772123338169      8.55979721652605
  O          11.61455637408325     18.46181734267256      8.40089840223086
  O          14.36800141513752     23.07499781213230      8.38399302553255
  O          11.48711288010556     20.23216105493165      6.38893674640160
  O          11.52347588580258     25.69421110499148      6.09917368727996
  O          14.33708092672281     24.77376462538961      6.27051584195112
  O          14.08544043811983     21.41793013724091      6.28520547385519
  O          11.69955170163595     27.61679725875440      7.87655942325144
  Si         16.92719734248386     16.88526530324096      7.97576708886968
  O          15.47231806189585     11.46894112189527      8.54779197577094
  O          15.46901162106993     16.28599601365796      8.38100899447799
  O          18.08381982506319     16.12545329089777      8.82353521784555
  O          17.21577429995807     16.70630705840931      6.38239509963120
  Si         16.70726425094001     19.87063444508976      7.64063109147464
  O          15.46900840099394     20.63399994112686      8.38100049480772
  O          15.47553883090581     25.45066698400870      8.51578068125762
  O          18.03399418776559     20.80795143205377      7.64224260845473
  O          17.03199227264527     18.46000878106270      8.38398711048918
  O          16.32032260329127     19.54364428376045      6.08990027320736
  H          -0.48717907339380     15.43816676165107      9.09395196575676
  H           1.70343536236542     12.07855219018967      8.90216610949663
  H           0.32540342175744     15.96511370732818      6.04791235379301
  H           3.05332963020905     15.34032965090092      5.71155077913751
  H           3.21228280017299     12.64396506332465      5.57552393730276
  H          -0.16065865815997     20.77079813652862      9.99338908490977
  H           1.69843262545391     24.83517644460003      8.92083828959388
  H           0.10773552123704     21.05360712352117      6.23429632372767
  H           3.18179473696313     24.27411208585543      5.58752100755417
  H           3.08296379204430     21.56380568855029      5.70556131915325
  H           6.83229201570221      9.24117876716864      9.47901926497695
  H           5.53017140069555     10.99951567710474      5.85000382280507
  H           5.51191029891977     16.45402263823454      5.94810210192771
  H           8.05634951939141     15.82912460758713      5.97792949768759
  H           8.84235955768649     13.31656959402201      5.89875672756161
  H           5.57153465910312     20.53857283929922      5.99350827345468
  H           5.50379491001409     25.82931833398655      5.83244388882347
  H           8.88097061045440     23.48426171354479      5.99353628659813
  H           8.07563560917902     21.07384679801625      6.12278683395540
  H           6.84601701809492     27.72859616661234      9.36790133390378
  H          12.05253437574971      8.98363351744008      8.76655590419664
  H          10.74335345721204     11.64609656321361      5.79329970854585
  H          10.78070449090789     16.45301222419768      5.87949597656959
  H          13.29656126377751     15.84452927603769      5.90989779056404
  H          13.52194748401976     11.97826211512273      5.82192520949903
  H          10.66012720594168     20.58542801333534      6.02810160204307
  H          10.74065534447403     25.20114657022767      5.80534089303915
  H          13.49378608198924     24.92330229053262      5.82112300941263
  H          13.22167885681657     21.12694459281466      5.95172948259349
  H          12.07258459021531     27.94288998696623      8.70033818124835
  H          15.82567448139594     11.79103783436553      9.38142041064085
  H          17.94673044562219     15.19567467221520      9.02436708963632
  H          16.81973899416274     17.38375274055273      5.81986740271662
  H          15.82799823646685     25.14707921919943      9.35670519714650
  H          18.43124462225311     21.02758527786897      8.48985613870950
  H          15.57184573522674     20.05438623114718      5.74825349577332
  N           7.71337286074765     14.18129064238484     12.16877385521980
  C           6.79664717349017     13.16761845299539     11.99619120936378
  N           5.54341600067428     13.57536698024534     11.62514261844580
  C           5.07412540579926     14.87836921059245     11.51842815880738
  C           6.09802553393469     15.86551397664882     11.70246502530697
  C           7.35011711646793     15.48633140880999     12.02802097276933
  O           7.07482805061845     11.99307381814036     12.17168022965142
  O           3.88834318112418     15.08558399519429     11.29968175643650
  C           9.02128647532181     13.78010411403403     12.76568505554051
  C           9.91624864576823     12.98317382013095     11.83447328543760
  C          10.88433477345004     14.01387607753777     11.27067120493585
  C          10.92292951556537     15.08274682565933     12.35723882143365
  O          12.18595146077450     13.52136160157494     11.04338255697740
  O           9.72843240996500     14.92186018863168     13.13058342923506
  C          10.99609923589789     16.47465687636014     11.78430432136979
  O          11.04574605458042     17.44022294786947     12.81826601688573
  P          10.10207146866174     18.75450336629408     12.72483615177526
  O           8.73491461410342     18.37474505619430     12.25731118798904
  O          10.30960655303768     19.46769583486102     14.01158322131460
  O          10.82056612814038     19.60361885249430     11.54016044431349
  H           4.86563551520395     12.83357518761022     11.50752128280818
  H           5.84897917527789     16.91146013600040     11.60215513717626
  H           8.12446431970282     16.22213336475115     12.20897210446949
  H           8.76045972940924     13.21376306712429     13.66190757474316
  H          10.48306748465699     12.26386011334357     12.42964204872029
  H           9.35935792128487     12.43822509142275     11.07738482748845
  H          10.48841614365775     14.44468302950414     10.34915870215159
  H          11.77934197357563     14.90148824745191     13.01615422334339
  H          12.19437311950149     13.06150170413616     10.19625023802637
  H          11.90323731236967     16.54729189424591     11.17398143851439
  H          10.13055850807274     16.64860249214876     11.14005652321245
  H          10.21929923406664     19.72581130067409     10.79672978559433
*
