! PBE0 D3BJ CPCM(water) Opt ma-def2-TZVP

%pal
  nprocs 12
end

%maxcore 2500

%scf
  # A safety mechanism for difficult convergence
  MaxIter 500  # Increase max iterations from default 125
end

%geom
  Constraints
    { C 4 C }
    { C 6 C }
    { C 15 C }
    { C 16 C }
    { C 17 C }
    { C 25 C }
    { C 28 C }
    { C 40 C }
    { C 41 C }
    { C 54 C }
    { C 57 C }
    { C 59 C }
    { C 69 C }
    { C 70 C }
    { C 73 C }
    { C 81 C }
    { C 85 C }
    { C 88 C }
  end
end

* xyz -1 1
Si 0.82550255444501274837 16.90273321031438413797 8.02672835404591289432
Si 3.57859338660620363015 15.40405380218299669082 7.91524250705477427914
Si 3.61525346668749136825 12.32827187626008580423 7.79142758741326257876
O  -0.39399254727869958970 16.38822460926508739476 8.97049796289057432830
O  2.14699993294695534729 16.01900001585557120620 8.38100000430081770730
O  2.16833122912953690786 11.70013062140693449464 8.17358994455809195756
O  3.71000007323606340037 13.84500000780769646269 8.38399999273895346619
O  0.51413263864938585357 16.82449474358353924686 6.43064562635276004698
O  3.78242852265878148899 15.56381404202007878723 6.30078740411241255970
O  3.83835818578998733130 12.26151674699301175053 6.17638957679532119016
Si 0.79040521357024573490 20.03769999432422110885 8.11798346746302179611
Si 3.61646548611147888863 24.59144273991503837351 7.78977790406985270977
Si 3.57392347151451783560 21.51644695675740948104 7.91298143847818558072
O  -0.36656750974044527425 20.60916375758948504426 9.10618692030553589234
O  2.16894289291225739191 25.21986234384969449707 8.16918535788876809534
O  2.14699987889819698950 20.90100010784428974375 8.38099998483270880456
O  1.04500007336365730026 18.45999992865469607750 8.38400000849420656834
O  3.71000014590308690998 23.07499992248371967207 8.38400000118249089098
O  0.28796921092659921726 20.17942496588684164749 6.58029563328514566223
O  3.84322893297401080304 24.65740308548092940555 6.17523017796604634100
O  3.76807242997571290033 21.35886612774014281513 6.29712044905733492328
Si 6.22270347605318363549 10.74478962120858938079 7.89204932919606072517
Si 6.22770120115116299075 16.89731259469064994505 8.01236698069483210816
Si 8.87567165651831757600 15.40393493277368364147 8.07146741901787834195
Si 8.88270019013800471441 12.35331725509719191791 7.92738867140163527836
O  4.81099995461367768712 11.40399997407198640076 8.38100000586474536135
O  4.84026674427147440838 16.22821144109725111093 8.54553535516409645822
O  7.53252353927330897676 16.13444974776239249081 8.63606400830386000678
O  7.47600001134988811913 11.67100002533209135436 8.38099999658660443913
O  6.39553672180642607259 9.26420229010235019018 8.53484835355531856749
O  8.97115844703234799340 13.85656775434060250518 8.57903219647732839803
O  6.19358004031123243749 10.56500296527529769719 6.27778410204001957595
O  6.34068245836123178805 16.74021437020936176054 6.38952262822148409072
O  8.84554263722979072782 15.39082824563763018944 6.42808051305747518711
O  8.99617644515313408249 12.49448485780009932000 6.29922600285840950107
Si 6.21638832347179715043 20.01550524335052472225 8.00088211994865439181
Si 6.22275724017713027791 26.17797518323239458482 7.89639692309842722295
Si 8.88164518213332065955 24.57359627221104858563 7.91870134241014689280
Si 8.85075338254297605545 21.52825984227797206927 8.03684228093201014076
O  4.83212176883231858682 20.68555655317718589004 8.53863760887203326888
O  4.81099990561712065329 25.51600006562006228705 8.38100000604900507994
O  7.47600001918154433156 25.24899994988512474947 8.38100000629187924517
O  7.51705032223099411937 20.79206826899397597685 8.61378731989830725979
O  6.27926991155927183286 18.45840710498390890848 8.45642109691116772296
O  8.96178708228703513328 23.06765939266134068930 8.56086481920863739958
O  6.31668640651916035722 20.15996000815834321429 6.37582712521827765784
O  6.19404506950286659617 26.36676298141640373274 6.28308224265365211636
O  8.99771841324988130850 24.44641163803701999768 6.28994570874204672606
O  8.79833297083383492065 21.55854515017241013197 6.39502419938515664910
O  6.39500684088939053140 27.65560332795665487993 8.54611655787660318140
Si 11.54077773903803638689 10.90435189919196901087 7.70392439300710574202
Si 11.54475397863571295431 16.89738966656685903445 7.91695217918824667436
Si 14.20353627897647541545 15.39713032852157326147 7.87470928896706112710
Si 14.23582000628125499020 12.29374207395646934060 7.89821818316705659413
O  10.13999999347447733555 11.40399999091711435995 8.38099999996703282079
O  10.19474390468977098578 16.23030433753106649419 8.55061140437095623668
O  12.85059881512709978324 16.10098648866213366659 8.48098109023014679053
O  12.80500002132209225181 11.67099999688371170237 8.38100000040420667347
O  11.70002193809274260161 9.30021622860609475936 7.89283361226858115600
O  14.36799995141803698573 13.84500001438410876631 8.38399998463837548002
O  11.52647381226512734997 11.21103037737391616702 6.10107396490287445801
O  11.53153709744854182873 16.72019063955695017398 6.29171040406507575682
O  14.13836306849407620234 15.44005716324117116756 6.24791031972172117293
O  14.36592144749596222653 12.11520262031924843882 6.28747362263434972363
Si 11.52107488360556786233 20.04305293595558268294 7.85872176060598359726
Si 11.54104399641831513179 26.02008623167948186961 7.70790688988357075573
Si 14.23698933710212344295 24.62924612879783126118 7.90140964249183230805
Si 14.21263215510268729247 21.53527643716595818546 7.85646401826652862610
O  10.17156467051982460248 20.69915961430104900387 8.49678379636023706212
O  10.13999995350876304201 25.51600004499315943463 8.38100000790720400801
O  12.80499979384474507071 25.24899961170484630202 8.38099993165719858723
O  12.80499999383573594969 20.90099999549570597424 8.38100002876718797040
O  11.64364410712055786234 18.47899260179086766698 8.30700778043944687568
O  14.36800000285285605628 23.07499999974379889522 8.38400001982343745510
O  11.49649712332348094890 20.16818414181458862799 6.23103186498099326229
O  11.52979967826650309348 25.72254297031835079679 6.10357091885872016235
O  14.36785318695391744370 24.80206538354001466473 6.29032778938276049274
O  14.23459251131446734462 21.46715809536906505173 6.21933351759164843031
O  11.70097777843672304243 27.62284067201338899622 7.90688337088849291234
Si 16.94924853991799906794 16.87134190440408332279 8.04468243615608002983
O  15.47124958710553421781 11.46932691319274155717 8.55583957840494413460
O  15.46900003976886139867 16.28600001105416694713 8.38100000440221926112
O  18.07446201145676667466 16.21289847721770271960 9.01232914006393670547
O  17.32777016141818648975 16.54921092121915293660 6.49330995639574037881
Si 16.79747638898606609814 19.93081092225607164892 7.73267174539293478119
O  15.46900003407298740399 20.63400001369728187228 8.38100000037093728622
O  15.47112709056276003139 25.45236982826051530537 8.56102280858080177950
O  18.11634118956801842160 20.83520173588053836511 8.03021783198878225107
O  17.03199996107034763781 18.45999999555034776222 8.38399999807159623799
O  16.60876852576482320956 19.83038374546125481857 6.12139245002999210499
H  -0.50423259884725624147 15.43969751411512447703 9.08178114757095045206
H  1.69998150268603520630 12.07827983306544794573 8.92297353520250347003
H  0.31527828001013880055 15.96291628480567226234 6.05244511954445130186
H  3.06011690930638202701 15.36094418920538728912 5.69970908515043017672
H  3.18226077274908192294 12.64156661658880054233 5.58570418806885093943
H  -0.12746512776409701928 20.79216845727814089173 10.01911989998795959877
H  1.69595558352782838085 24.83705368268651625385 8.91328417919831395011
H  0.06870205895010172981 21.06154561970090099976 6.26602478717011734943
H  3.18504441497218238055 24.28262459382402838060 5.58349175259257357595
H  3.04237625139629841442 21.56618417120832376099 5.70151829945089616558
H  6.86261732044500849526 9.19605253061066996167 9.37200294390988197790
H  5.50488190529118437411 11.07966287526246951245 5.83436112706815102058
H  5.53947202770464031119 16.40054319970465712686 5.95952170073800857608
H  8.05967270162092930263 15.81862340955130719067 6.04527862732606280360
H  8.86604803862305246298 13.39292817976318517026 5.95934373390515581548
H  5.51369468059973666385 20.50209974598343265484 5.95097614217885784171
H  5.50812286266576833782 25.85154711677879646459 5.83617094382230039429
H  8.84698060167897182282 23.55488086441058825926 5.94014873924646735759
H  8.01534686371377169678 21.12144571794703651335 6.01740514059446862660
H  6.85640193680112020047 27.71938859615113415202 9.38677005575416067984
H  12.07465572210290183364 8.98126917977282168692 8.71867792152311338327
H  10.73932833022784549826 11.69412444812257589888 5.80207311861617380799
H  10.72187985840071000609 16.34829361707873118803 5.91526737738642083286
H  13.31446529060486128060 15.80088674574058948963 5.88887824026198103411
H  13.52713006079355650968 11.98281384181043485171 5.82547799834065749280
H  10.69115572945636571944 20.54020170980307824493 5.84772945333948612756
H  10.74283607749423197220 25.24201418952052122791 5.79986199847969086107
H  13.53075164934057994515 24.94716800606660456197 5.82892497359329908591
H  13.39832301688197091494 21.21040223571711891282 5.80701731925425335135
H  12.07260089926677970595 27.93684520862723985601 8.73599234126507795395
H  15.82850340168505098859 11.79809416489116991045 9.38506512791688507491
H  18.14928359255795342619 15.25438693185136251884 9.00788299557361504810
H  16.62567003255417574792 16.64916104373377692127 5.84290708829084159959
H  15.82415888771438616800 25.12896139064762124349 9.39417316438605887186
H  18.51458376036416453303 20.76863316211910159836 8.90270021130515942787
H  15.82968317668997570991 20.30123648279068859779 5.78901744230296255722
P  7.82626526991476012540 19.32604459070026337031 11.85376656223299818294
O  10.39722279723715381294 22.51119864014232163640 13.03549433828159465065
O  13.36751040753824781859 23.51482809083670133532 12.15214546449557531105
O  11.45241750753158349596 24.24162829064022517400 10.70928581036700322215
O  8.44067337472029421974 20.77830667751810977961 12.15684738180119950357
O  7.69551167895904875138 18.56486526857684182801 13.15189322546293837490
O  8.87165072799351328570 18.55241673551712366930 10.90872717302701744302
O  10.72788438499241436830 16.39089948104729188572 11.90329101840917047639
O  6.49935949551926750445 19.48432186896763340656 11.15082202795377774862
N  11.66238443381080891470 20.55010587561007540103 13.37307628399665304642
N  10.42877892956717111872 18.72181292282473918931 13.67871800095293366439
N  13.17763380163670916545 19.66185588477608803259 11.62767492162922167154
N  12.62449768249487647154 17.41332873702818773154 11.07557172082627161558
N  14.40333498786172938821 18.52133288431980062683 10.02612435577284522026
C  12.50572062547754725870 22.43203558449287271515 11.90163369073378518692
C  11.38306138444881909777 22.84206590993158059177 10.89775016725280032404
C  11.72984583975181038795 22.01207288393481675826 13.17906919838060986194
C  10.06817539829947349972 22.47556539003055320336 11.64779677093684284728
C  9.48856104646635145627 21.09403839532027546966 11.29917273203169969520
C  12.20251508470528456485 19.56649894460126404283 12.56411245073454452381
C  10.59505933843042768672 19.96378217500278040575 14.03663645839860407705
C  11.40755316724695589414 18.43928316643852838297 12.78660524694186406691
C  11.54564277672255556695 17.30233994855110424282 11.92438836610213215295
C  13.39850536688232551796 18.55505847810517394691 10.95550129100604408450
H  13.14480244557724120114 21.61439143079322633412 11.54499764594299371367
H  11.48205199604127457746 22.32705748376550047851 9.92930514829844312885
H  12.17309117820193087312 22.47766938317459661789 14.06768469704826785005
H  9.30821430089742740677 23.25372228592210888110 11.48918092472506913282
H  10.25653387122488524597 20.31573132822389382568 11.41757952779439122537
H  9.10846348842567543613 21.03537824276725132222 10.26966354455649010902
H  12.86186069130538101035 24.34301935543962613906 12.00912406959726297373
H  10.93234660133447988528 24.55388295508639373566 9.93131929025710746828
H  9.87629388301428612351 20.51023352165469759711 14.63308193987367999966
H  12.70425985451292127948 16.74276441253974923029 10.31489368587434896085
H  14.65440805902625243107 17.69563641799375020014 9.49277617812457208402
H  14.78086188130780342931 19.36163670132970082705 9.60482171819471375329
H  9.29780096058275518089 17.76150131373849916372 11.29382962908026399873
*
