! PBE0 D3BJ CPCM(water) TightSCF TightOpt ma-def2-TZVP

%pal
  nprocs 8
end

%maxcore 2500

%geom
  Constraints
    { C 4 C }
    { C 6 C }
    { C 15 C }
    { C 16 C }
    { C 17 C }
    { C 25 C }
    { C 28 C }
    { C 40 C }
    { C 41 C }
    { C 54 C }
    { C 57 C }
    { C 59 C }
    { C 69 C }
    { C 70 C }
    { C 73 C }
    { C 81 C }
    { C 85 C }
    { C 88 C }
  end
end

* xyz -1 1
  Si          0.82786730139132     16.90334442026356      8.02096684271956
  Si          3.58136913583925     15.40762479077323      7.91942974957303
  Si          3.62132944836324     12.33831915037001      7.77071728750869
  O          -0.39701162804675     16.38550454212724      8.95587767120878
  O           2.14699988774017     16.01899999299770      8.38099995559236
  O           2.17393015469158     11.70025482261825      8.12670923522218
  O           3.71000080452003     13.84500006827701      8.38399985899697
  O           0.52581456998819     16.82840182825529      6.42284058748940
  O           3.79662370139961     15.56897798026112      6.30711096412320
  O           3.87929315188391     12.27716806445865      6.16303541770122
  Si          0.79433272361392     20.03629775153155      8.10326327094956
  Si          3.61572675194324     24.59084903680403      7.79118032143196
  Si          3.58111199982543     21.51201500527823      7.92875537739982
  O          -0.37743445497228     20.61303486450399      9.07085878383173
  O           2.16858982775031     25.21944905378791      8.17241225159898
  O           2.14699988939371     20.90100012526246      8.38099998146217
  O           1.04500007497667     18.45999991246411      8.38400001098519
  O           3.71000013516181     23.07499991644184      8.38400000360002
  O           0.31416995461908     20.17152960622077      6.55808176169787
  O           3.84019094644940     24.65594969145152      6.17595080621714
  O           3.80149689523198     21.33822319857749      6.31797631627989
  Si          6.22890004245503     10.74356668756409      7.88146069126621
  Si          6.23079200527126     16.90711362487804      8.09670332794648
  Si          8.88121333020529     15.40452986520102      8.12555492776087
  Si          8.88371739555837     12.35505716389964      7.93320212772594
  O           4.81099991988202     11.40399983759282      8.38100000735118
  O           4.83537007892618     16.22066460965164      8.56291175453686
  O           7.55222663117732     16.15298967732470      8.71554053407744
  O           7.47599996080112     11.67100023501900      8.38099995384268
  O           6.39193831984696      9.26634455138062      8.52969217449230
  O           8.96054250577394     13.84929832804758      8.59983086758768
  O           6.19301747356549     10.57149443470741      6.26973186993395
  O           6.38089793471977     16.75788426589961      6.47172878071711
  O           8.85378027004552     15.43986892115157      6.48627923843576
  O           8.99823469529934     12.50776716373410      6.30690678730505
  Si          6.22644994508094     20.02247259108791      8.07820653758167
  Si          6.22278426113334     26.17273519315328      7.88814006816089
  Si          8.88219974197568     24.56160447357174      7.94258619238667
  Si          8.86548640415681     21.52001292535223      8.15691522660753
  O           4.83050455448307     20.69149145575654      8.58467184505972
  O           4.81099991156326     25.51600006066955      8.38100000495440
  O           7.47600002191751     25.24899995789886      8.38099999390829
  O           7.51636325290647     20.79931089631354      8.71564244688461
  O           6.28089055367376     18.46758150129529      8.53407882869585
  O           8.96048785182964     23.07585308895490      8.63029317040241
  O           6.36270986219141     20.16919334540000      6.45537711156726
  O           6.19603694991178     26.34294661265338      6.27286222729274
  O           9.00133684257041     24.38776436229416      6.31828546863555
  O           8.86093891681495     21.49105929818973      6.51270890853627
  O           6.39570327575795     27.65719948006732      8.52186988953579
  Si         11.54116170638022     10.90426385163896      7.70378061127653
  Si         11.53957255588228     16.89915028527281      8.03170565531608
  Si         14.18825837945891     15.40170802927305      7.89694701663841
  Si         14.23499773555234     12.29550730042086      7.89652873163427
  O          10.14000000468380     11.40399992803694      8.38099999739413
  O          10.19880811076802     16.20166496359754      8.64929084862175
  O          12.85784081035014     16.10198176912461      8.55943780452206
  O          12.80500004364161     11.67099999065927      8.38100000879663
  O          11.69918389369352      9.30019276793018      7.89277321257032
  O          14.36799995662300     13.84500003389339      8.38399999704254
  O          11.52561781851120     11.21016528605896      6.10096041819349
  O          11.51203841977603     16.77598718257797      6.40105560263453
  O          14.04450006065760     15.44196900464422      6.27725790712946
  O          14.36331200001077     12.11881375075051      6.28544538000435
  Si         11.52259645019668     20.03390114718687      8.04812859901834
  Si         11.53909248718805     26.01146796000560      7.69986240829897
  Si         14.22856149582674     24.62203050597157      7.88305782290905
  Si         14.17540770190755     21.51770771298531      7.92231888288421
  O          10.17929672890363     20.71227228879786      8.67734070290219
  O          10.14000000542202     25.51599999276139      8.38100001205683
  O          12.80500000233771     25.24899998146673      8.38099999457993
  O          12.83767578495675     20.84003154664667      8.58041342518006
  O          11.61572966269779     18.46535632955574      8.47801446735136
  O          14.36799993422794     23.07499996863245      8.38400000741892
  O          11.49701555995632     20.18423786847116      6.41966072886571
  O          11.52259078796121     25.69289343910635      6.09899670440979
  O          14.33281336142091     24.77047156717436      6.26810065198546
  O          14.06919680859452     21.41163724557553      6.29256155147888
  O          11.69974116228914     27.61661026307159      7.87551709267165
  Si         16.92237144547088     16.88788869718661      7.96479261780139
  O          15.47186121321965     11.46976212270448      8.55014688261279
  O          15.46900005886127     16.28599998049433      8.38100000495845
  O          18.08758378343985     16.12064958261464      8.79422097626749
  O          17.19297553607321     16.72251173042731      6.36680035234888
  Si         16.71045324172998     19.87385508495036      7.64434849046515
  O          15.46900007635728     20.63400003438953      8.38099999981708
  O          15.47572686008503     25.45072401987490      8.51038054592586
  O          18.03824544490728     20.80938636022834      7.65462253113633
  O          17.03199991981862     18.45999998677270      8.38399999946203
  O          16.32864879558303     19.55590053712114      6.08998294221704
  H          -0.49848593398671     15.43701033982039      9.07535852453122
  H           1.70085103220997     12.05696740596674      8.88391848697233
  H           0.31711604092110     15.96918420850374      6.04454314975069
  H           3.06913340914722     15.40014759738270      5.70181721604266
  H           3.24011298324448     12.66343441720874      5.55773609445890
  H          -0.16073508596488     20.77050476956701      9.99416266821665
  H           1.69836233992497     24.83633446053827      8.91815812982202
  H           0.10777036519055     21.05331819663969      6.23424778015306
  H           3.18867890474719     24.26610324544533      5.58650701327540
  H           3.08701144692552     21.54554750000313      5.70893513069411
  H           6.87753013921370      9.19422565733221      9.35611353065191
  H           5.51562005337762     11.10059176100170      5.82485489367477
  H           5.58752281008550     16.43092692874216      6.01956820493441
  H           8.06222555134803     15.87626644480059      6.12055126640380
  H           8.85790006548513     13.40265614231372      5.96449808727915
  H           5.56857725930917     20.50551710893041      6.01001789506556
  H           5.50497340168466     25.82877729871247      5.83233488788596
  H           8.87960643675596     23.48212044162712      5.99527314644148
  H           8.07309360229059     21.06414969889851      6.13081613939225
  H           6.84459232873201     27.72864817156698      9.36867385493632
  H          12.07693675706037      8.98077071513514      8.71700821477480
  H          10.74258261252749     11.69905783135607      5.80154576760789
  H          10.69598980802886     16.42278272443507      6.01917777604129
  H          13.22250097745195     15.84725061323537      5.96189993164170
  H          13.52419598390379     11.98747565784616      5.82388124810564
  H          10.67613400516960     20.53851903373312      6.04724938086187
  H          10.73979582996379     25.19889091138512      5.80638634130050
  H          13.48883250662250     24.92062361974406      5.82013061433509
  H          13.21026406848357     21.09217701428507      5.97172384396663
  H          12.07627638068059     27.94289254954057      8.69761600089279
  H          15.82500555583261     11.79198964471693      9.38369253248264
  H          17.94627106351264     15.19254351485896      8.99973207843482
  H          16.80733851614238     17.41661763481605      5.81704337676170
  H          15.83346464101405     25.14480536229789      9.34820399297191
  H          18.44389041174401     21.00898807559835      8.50323280869461
  H          15.57279261531036     20.05902306778855      5.75322032690591
  N           6.38771856428192     12.36582691500826     15.24749735003359
  C           6.24013769561578     11.41461337455570     16.23776564153932
  N           6.71939491708545     11.79785461825306     17.46285604884770
  C           7.32679663623934     12.99657652020383     17.80784158786906
  C           7.44728201036981     13.91876965221943     16.71067958889988
  C           6.98173574365541     13.56972876922044     15.49874156499222
  O           5.72532164094535     10.32641662481885     16.05853709628727
  O           7.70197531461331     13.18374818688583     18.95599826418600
  C           5.92780947107842     12.06360396440446     13.89998038633073
  C           4.83283565276020     12.98630100724868     13.38859894013733
  C           5.05738632535623     12.94185147882841     11.89388297814738
  C           6.58111758557705     12.82664997624071     11.79293365613373
  O           4.40930517887186     11.78467452327708     11.39444701070282
  O           7.01383456895226     12.21153258528626     13.00913854664624
  C           7.30336383983516     14.13258921040021     11.56184448320094
  O           7.09889949421339     15.02335556606520     12.64302126443784
  P           6.95625401259605     16.61993283611170     12.37829524408000
  O           5.80454938792283     16.87716376430134     11.46797207659655
  O           7.03766811653532     17.23781415951207     13.72724819050700
  O           8.32480086712088     16.96938272937480     11.57883156889216
  H           6.61290678687747     11.11313897493616     18.19991248806942
  H           7.91388067385351     14.87856905115264     16.87511954764879
  H           7.06409714008191     14.22052594244678     14.63548468409774
  H           5.59884442508680     11.02543361158952     13.92864397372000
  H           3.83757912635975     12.64644096057254     13.67199494947078
  H           4.98708005191773     14.00129121245205     13.75547096470691
  H           4.69433187614901     13.84004948305497     11.38514077583299
  H           6.84501948857851     12.16459933716176     10.96190940546814
  H           4.65498936017266     11.66354666990616     10.46836278806053
  H           8.37539414609801     13.94158673142555     11.45484601502500
  H           6.93551999764500     14.55894852662246     10.62425668531558
  H           8.15119688067752     16.97907541700091     10.62846102165949
*
