! PBE0 D3BJ CPCM(water) Opt ma-def2-TZVP

%pal
  nprocs 12
end

%maxcore 2500

%scf
  # A safety mechanism for difficult convergence
  MaxIter 500  # Increase max iterations from default 125
end

%geom
  Constraints
    { C 4 C }
    { C 6 C }
    { C 15 C }
    { C 16 C }
    { C 17 C }
    { C 25 C }
    { C 28 C }
    { C 40 C }
    { C 41 C }
    { C 54 C }
    { C 57 C }
    { C 59 C }
    { C 69 C }
    { C 70 C }
    { C 73 C }
    { C 81 C }
    { C 85 C }
    { C 88 C }
  end
end

* xyz -1 1
Si 0.82550255778110859239 16.90273321420946928129 8.02672835531999773195
Si 3.57859347115938231099 15.40405378280223835930 7.91524246515834306592
Si 3.61525361321462224140 12.32827179274259421504 7.79142765909701573435
O  -0.39399254850538945050 16.38822460877447539929 8.97049796164704638102
O  2.14699992545670692579 16.01900001741334733651 8.38100001591557486336
O  2.16833118571111960193 11.70013069475441014333 8.17358988363654148657
O  3.70999992846082804476 13.84500004990371913038 8.38399999684222407836
O  0.51413263632769634626 16.82449474265446909271 6.43064562557467933601
O  3.78242849852614781980 15.56381404948836788549 6.30078741132228259403
O  3.83835815891700349312 12.26151676207847884825 6.17638956065531274930
Si 0.79040521403039853965 20.03769999488383390940 8.11798346692378203215
Si 3.61646547985680300030 24.59144275775734556078 7.78977789548255383778
Si 3.57392347640535046338 21.51644695692880304705 7.91298144078512510902
O  -0.36656750973039464725 20.60916375725161131527 9.10618692059204981604
O  2.16894291993849908096 25.21986230894473379749 8.16918537483656237441
O  2.14699987923894930475 20.90100010936121321947 8.38099998735948403805
O  1.04500007174259224030 18.45999992694502722657 8.38400000873723705297
O  3.71000013974713827025 23.07499991955239337926 8.38400000357561836495
O  0.28796921096955685471 20.17942496577734701191 6.58029563330777822472
O  3.84322893605873971978 24.65740307763223881921 6.17523018046329319475
O  3.76807242887689497479 21.35886612772023340767 6.29712044873467569062
Si 6.22270348024932395958 10.74478961638586937966 7.89204933176478462542
Si 6.22770130856855974599 16.89731285600155530346 8.01236690646273430616
Si 8.87567190942157502320 15.40393525262502549822 8.07146752003837875122
Si 8.88270019036248292821 12.35331725895236409940 7.92738867135353331150
O  4.81099992837700352055 11.40400000316027728786 8.38099998869301465731
O  4.84026678031104484745 16.22821146538152703442 8.54553545515069679084
O  7.53252319299207684367 16.13444921567451828537 8.63606392825406210534
O  7.47600001256388058124 11.67100002157327587327 8.38100000031633562969
O  6.39553672024446484556 9.26420228947931612140 8.53484835214186965402
O  8.97115844316042654327 13.85656772990731333550 8.57903219177523546080
O  6.19358004017991703449 10.56500296578488473642 6.27778410139483078467
O  6.34068244178467832484 16.74021430740903326750 6.38952263380917706570
O  8.84554258227984746554 15.39082816134992626189 6.42808049343569720691
O  8.99617643910870334878 12.49448485890597737580 6.29922600355333628386
Si 6.21638833650656508212 20.01550524907058203894 8.00088212153280053940
Si 6.22275723965741534016 26.17797517048249389404 7.89639692725692743380
Si 8.88164516040545848341 24.57359633161950540625 7.91870133852050894774
Si 8.85075338974688108351 21.52825981192378534956 8.03684234373749184499
O  4.83212176489340627938 20.68555654533752985458 8.53863760867178100966
O  4.81099990280924583175 25.51600007082531362812 8.38100000429302838256
O  7.47600002471478486399 25.24899994917981871367 8.38099999662200900730
O  7.51705028582784606783 20.79206827977490945614 8.61378728456780962119
O  6.27926991213587104568 18.45840709056719219916 8.45642109306297840021
O  8.96178712315922965104 23.06765938286239148169 8.56086479539034073127
O  6.31668640613118892446 20.15996000796734222149 6.37582712148057151325
O  6.19404507050970210003 26.36676298329583190139 6.28308224163637518700
O  8.99771841983114128993 24.44641163303031561327 6.28994570425017052173
O  8.79833296259597297251 21.55854515674071336662 6.39502418140509387712
O  6.39500684209741887543 27.65560333057375075327 8.54611655746667331357
Si 11.54077773911345516922 10.90435189840323815247 7.70392439239756487979
Si 11.54475441845454319889 16.89738981777077242441 7.91695221501132273545
Si 14.20353636686278875345 15.39713049881322248780 7.87470928487393084794
Si 14.23581999481102400296 12.29374207205614233374 7.89821818481983584093
O  10.13999999331354473497 11.40399999156137589296 8.38100000072186901434
O  10.19474379802911734316 16.23030434042119196647 8.55061141525497880878
O  12.85059861499741984403 16.10098625769364844018 8.48098101357922473653
O  12.80500002337175935452 11.67099999659480857872 8.38100000016175350481
O  11.70002193717750849089 9.30021622925445790031 7.89283361218348300525
O  14.36799996783926403054 13.84500000790462870270 8.38400000026224212490
O  11.52647381230755740944 11.21103037734480700749 6.10107396499727805406
O  11.53153702214809150917 16.72019064672945631855 6.29171038968967355487
O  14.13836304002583865724 15.44005711265854685621 6.24791031952015796236
O  14.36592144823072736415 12.11520262013562643233 6.28747362181750446553
Si 11.52107504319014807947 20.04305291822777945754 7.85872172423033354960
Si 11.54104380060824119880 26.02008594967363919181 7.70790688392602252321
Si 14.23698937118567542370 24.62924612743923091784 7.90140953882185836932
Si 14.21263219295393831487 21.53527644476602276313 7.85646400150824675279
O  10.17156467752587012399 20.69915964476454561805 8.49678381667784954345
O  10.14000000135778734034 25.51600002523285937173 8.38100000699097158474
O  12.80499996046099830949 25.24899992436866469347 8.38100000692586455386
O  12.80499999564262658680 20.90099999825318022317 8.38100000230394748257
O  11.64364373546750996979 18.47899258421758972304 8.30700783748592286315
O  14.36799993176453327237 23.07499996066871972289 8.38400003596281351292
O  11.49649711929592577064 20.16818414141090087810 6.23103186604919301317
O  11.52979969713406838139 25.72254299146932865483 6.10357092791416810940
O  14.36785319199701049797 24.80206537767832841723 6.29032781139924157543
O  14.23459250360447292394 21.46715809535212216019 6.21933351945542156614
O  11.70097781428874839094 27.62284072458614758716 7.90688338048479089082
Si 16.94924852441723572838 16.87134190455090987371 8.04468244654472819377
O  15.47124958802852390249 11.46932691330261988583 8.55583957865629507467
O  15.46900003874203832765 16.28599998673151105777 8.38099999883603707929
O  18.07446202725331474426 16.21289847829535801793 9.01232912682423048523
O  17.32777016647438017571 16.54921092342721067325 6.49330995370625885243
Si 16.79747638884910543311 19.93081091855810882407 7.73267174338342044848
O  15.46900003686602076414 20.63400001868200206445 8.38100000297568215046
O  15.47112709049645218329 25.45236979719267367273 8.56102280639439250365
O  18.11634118871394960593 20.83520173618029502904 8.03021783280271428396
O  17.03199996011648664762 18.45999999666837609880 8.38399999694920339266
O  16.60876852580581441998 19.83038374587962593409 6.12139245024955602759
H  -0.50423259826698441088 15.43969751419316516206 9.08178114859163621020
H  1.69998152425064485982 12.07827978548218084143 8.92297357093450393961
H  0.31527828098272969726 15.96291628509488269572 6.05244511940512541770
H  3.06011691406821295658 15.36094418140801032280 5.69970908382082974697
H  3.18226077696454723309 12.64156660874367688052 5.58570418668374912841
H  -0.12746512770301876571 20.79216845749462905246 10.01911989992556506479
H  1.69595558046853511769 24.83705368867425988810 8.91328417407730455579
H  0.06870205891261171871 21.06154561971156624622 6.26602478720097444409
H  3.18504441259177983881 24.28262459804745532210 5.58349175214384985111
H  3.04237625161759694947 21.56618417139507570823 5.70151829942402432749
H  6.86261732242905164725 9.19605253190302462940 9.37200294832821789726
H  5.50488190722837522628 11.07966287335788990731 5.83436112653155980468
H  5.53947202640219948933 16.40054321300388551208 5.95952169850670632201
H  8.05967271875987734120 15.81862344181468316151 6.04527862753927713868
H  8.86604803954733355909 13.39292818744121049690 5.95934373568850705993
H  5.51369468066796120098 20.50209974608423735276 5.95097614239624661536
H  5.50812286244461368767 25.85154711668286608983 5.83617094397768809699
H  8.84698059957399074449 23.55488086624864152441 5.94014873917836716544
H  8.01534686691356057509 21.12144571541498905276 6.01740514167242768195
H  6.85640193604137060390 27.71938859573171498596 9.38677005618551163479
H  12.07465572253314434192 8.98126917924642143021 8.71867792171842381777
H  10.73932833117638274700 11.69412444767987580008 5.80207311839702555289
H  10.72187989149377607134 16.34829359456534092487 5.91526737197547802793
H  13.31446530505757230856 15.80088676007412118452 5.88887823858837755608
H  13.52713006080242408302 11.98281384195433751927 5.82547799859346504547
H  10.69115573065655588891 20.54020171222650859022 5.84772945166597235556
H  10.74283607328058032238 25.24201418564946663992 5.79986200437177412681
H  13.53075164781596484431 24.94716801936760575131 5.82892497254226782388
H  13.39832301565447281178 21.21040223652108736019 5.80701731911531027208
H  12.07260088699422340142 27.93684520686357330987 8.73599234022683646117
H  15.82850340175043690749 11.79809416496532392671 9.38506512793531832983
H  18.14928357272081527185 15.25438693080368324217 9.00788301199091812066
H  16.62567003182340030776 16.64916104338884395020 5.84290708841445649568
H  15.82415888121317237847 25.12896140561462487995 9.39417317105982085934
H  18.51458376061538757540 20.76863316199637665704 8.90270021115560084013
H  15.82968317727957696661 20.30123648209078623950 5.78901744211563151765
P  5.86660233009611431498 11.82695737656662693382 15.36987673463891646009
O  8.95017602679400781085 10.08642176288904046544 13.28639555183420384310
O  10.85503553242016039349 10.24637433144253506612 10.85228960358915983875
O  10.89742306872388866168 12.56219781780269784122 11.99183421041929520356
O  7.41740267764564631392 11.54598006015700661919 15.05878943702779970693
O  5.11233864959153905261 10.51862455987000188884 15.42473294385329296574
O  5.25927318428386225690 12.66747584229212897355 14.14692812483241013410
O  3.15060906229525450328 11.59392663641307308353 12.12265919051344198465
O  5.73770021500179439045 12.63500575915971424479 16.63973914723141689365
N  7.29080844092675484092 9.76355208537851559925 11.61856569627622448593
N  5.17611444773861517632 9.38694183903368717381 12.23940389381159832283
N  7.01364872217536561294 12.11178534834640174722 10.90688168647065481309
N  4.76208416294199210483 12.84676604755568263272 11.09139948577016099307
N  6.46620260081148501285 14.22226376623267540822 10.19003628396727023642
C  9.55558405230574336997 10.73537687634873627474 11.08457838466423694967
C  9.60199224107359228242 12.00782956965785075454 11.97222623042876499255
C  8.73316628950284368216 9.73334454710144747480 11.92138859700477482306
C  9.13801234858617483781 11.50201969625517151030 13.37699616012872283477
C  7.84326593913329084273 12.15305556885984117343 13.88206590423667741163
C  6.56289775708038014557 10.90108232787075692727 11.31753067838278248303
C  6.38356580891024005808 8.89259039984546006963 12.20765248208497055771
C  5.24533910403837744241 10.62209248354520774171 11.68606626810682058704
C  4.27232267591697212339 11.67970363912781373017 11.63898896490879053545
C  6.08623440469059051594 13.02817015903211483874 10.74288777949903561648
H  9.07562787122091130243 10.91831147522468370425 10.10932729722604861422
H  8.91473206172699761396 12.76344343059207631086 11.56942860500551617520
H  9.11984353745586240336 8.71591346684449597149 11.77941814325245140083
H  9.94385288671532840965 11.64406481258910019960 14.11141322218309568370
H  7.04251914604023632194 11.99690841072579594595 13.14904860214162951593
H  7.95166038035632816161 13.23581636118306192884 14.05833752557201776767
H  11.44500207033710736937 11.01213487729489237665 10.67954974535160417304
H  10.91798095127326995168 13.39500637907922353520 12.50867739234440279006
H  6.65240228725872384530 7.95481875954047801258 12.67435106235379471684
H  4.12215950902918670806 13.62101446759429634881 10.98359665092198511616
H  5.81870740572907862997 14.85865254565717386015 9.73357565045393968717
H  7.36106039223803598759 14.21461174481121503277 9.69776237635747762056
H  4.45202056638948562295 12.26807290169193365159 13.77348470860911255897
*
