! PBE0 D3BJ CPCM(water) Opt ma-def2-TZVP

%pal
  nprocs 12
end

%maxcore 2500

%scf
  # A safety mechanism for difficult convergence
  MaxIter 500  # Increase max iterations from default 125
end

%geom
  Constraints
    { C 4 C }
    { C 6 C }
    { C 15 C }
    { C 16 C }
    { C 17 C }
    { C 25 C }
    { C 28 C }
    { C 40 C }
    { C 41 C }
    { C 54 C }
    { C 57 C }
    { C 59 C }
    { C 69 C }
    { C 70 C }
    { C 73 C }
    { C 81 C }
    { C 85 C }
    { C 88 C }
  end
end

* xyz -1 1
Si 0.82550257593217324370 16.90273320722593197729 8.02672833413173947292
Si 3.57859338480791677739 15.40405380123858591901 7.91524250925904127030
Si 3.61525346730257535199 12.32827187649087719024 7.79142758703267279685
O  -0.39399255077822026294 16.38822461046508038862 8.97049796486390604855
O  2.14699992999706257280 16.01900001743099721807 8.38100000417097668048
O  2.16833122928554988817 11.70013062140357895657 8.17358994479392819699
O  3.71000007167001122355 13.84500000841872946467 8.38399999194147582671
O  0.51413263699668299012 16.82449474367642849870 6.43064562732994549066
O  3.78242852290010045380 15.56381404324821637886 6.30078740340576715084
O  3.83835818573434295331 12.26151674703057814497 6.17638957683907108276
Si 0.79040510424433385595 20.03770002575061681682 8.11798344803125893065
Si 3.61646548976818227317 24.59144274031861954199 7.78977789861681912953
Si 3.57392350056078011988 21.51644694995027862205 7.91298146577037542215
O  -0.36656731602421288585 20.60916374128981942704 9.10618692869562806891
O  2.16894289537017215252 25.21986234456246478430 8.16918535962230052405
O  2.14699988069201630481 20.90100013460052608139 8.38099999928173744479
O  1.04500005639581594608 18.45999991309476229162 8.38400004402304332984
O  3.71000012853857796813 23.07499992836294211429 8.38400000284963731190
O  0.28796924586518457545 20.17942495992521045878 6.58029562886451202530
O  3.84322893381362007403 24.65740308455592710857 6.17523017773166227329
O  3.76807242530934427549 21.35886613296381852933 6.29712045761446059799
Si 6.22270347680123947498 10.74478962036918616718 7.89204933022558297040
Si 6.22770124060281737854 16.89731262708091463765 8.01236694334231636105
Si 8.87567173700767853006 15.40393500063702703073 8.07146739378168831536
Si 8.88270018401319916279 12.35331725626453902578 7.92738867039414962790
O  4.81099995473642838562 11.40399997369085127730 8.38100000603758488182
O  4.84026675495607250355 16.22821144011249216987 8.54553536870812635584
O  7.53252353847707389889 16.13444972545705979883 8.63606402217489410589
O  7.47600001234240174597 11.67100002915077006094 8.38099999502641601623
O  6.39553672208922918685 9.26420228959743141672 8.53484835343576797584
O  8.97115844084488145427 13.85656772942880721189 8.57903220868726812398
O  6.19358004044789201004 10.56500296521384107962 6.27778410208354298305
O  6.34068246647876065936 16.74021435944173674670 6.38952263052003122112
O  8.84554262976086569381 15.39082822613990941818 6.42808052744114721833
O  8.99617645023015199968 12.49448485854506429860 6.29922600144553346269
Si 6.21638856995813604556 20.01550509723665882689 8.00088201115494612736
Si 6.22275723678031766894 26.17797517431221621109 7.89639692599878628698
Si 8.88164511786828114737 24.57359634427427508285 7.91870135338080860521
Si 8.85075366472486813052 21.52825954806273855979 8.03684258953223640276
O  4.83212175067501803483 20.68555648804234081695 8.53863766773262611309
O  4.81099990695180856903 25.51600006586557611854 8.38100000560715230336
O  7.47600003114800326642 25.24899995495525573119 8.38099999916040871994
O  7.51704994158827233264 20.79206874023099160809 8.61378716020721846292
O  6.27926975605342541087 18.45840705575357532098 8.45642114177296910782
O  8.96178716541491837688 23.06765936367511926619 8.56086473838795036784
O  6.31668640897804767320 20.15996001425322958767 6.37582712210465984981
O  6.19404507094314027427 26.36676298140993424113 6.28308224197419828982
O  8.99771841895204715911 24.44641162992245853047 6.28994570220051230081
O  8.79833289922003025652 21.55854519878435127112 6.39502412529116259776
O  6.39500684256029661157 27.65560332870917648052 8.54611655696004390848
Si 11.54077774152416679954 10.90435189835446827544 7.70392439327015932093
Si 11.54475449219707883231 16.89738995812584576584 7.91695222671572018669
Si 14.20353637084468800822 15.39713052672892246164 7.87470929568729349768
Si 14.23581999180372292813 12.29374207158243592630 7.89821818617284954200
O  10.13999999598393486622 11.40399999305630629465 8.38100000011973911285
O  10.19474373385992116425 16.23030424532039717178 8.55061143690082481328
O  12.85059858356323481132 16.10098620334973773538 8.48098099932577653703
O  12.80500002253731572921 11.67099999600332793648 8.38099999991725752579
O  11.70002193733166251377 9.30021622874143361059 7.89283361210094369653
O  14.36799997901236913833 13.84500000983990197767 8.38399999928464900734
O  11.52647381198964282589 11.21103037703103488809 6.10107396480666430705
O  11.53153701552002807773 16.72019061437936571224 6.29171038144418570681
O  14.13836303649289227735 15.44005710615545368114 6.24791031476224567598
O  14.36592144806094140108 12.11520262009803516889 6.28747362242113094766
Si 11.52107503628202422874 20.04305292582389697031 7.85872171342033087882
Si 11.54104378852088075291 26.02008587254805149769 7.70790688339140395158
Si 14.23698923467178723001 24.62924594216604745611 7.90140961166662769699
Si 14.21263216877100887814 21.53527643876115860166 7.85646401703449903664
O  10.17156463880786532172 20.69915966337141099984 8.49678378009616075417
O  10.14000000413433788538 25.51600002739957062659 8.38099999952963337080
O  12.80500000817721328872 25.24900001339187838312 8.38100000049916893374
O  12.80499999692396251305 20.90100000135788960165 8.38099999604139966891
O  11.64364372378179623979 18.47899255051916966863 8.30700784340850084675
O  14.36799998271149192419 23.07499998542422758874 8.38399999920001981479
O  11.49649712197253847989 20.16818413957897249134 6.23103187249727330510
O  11.52979969410805693997 25.72254300229674228717 6.10357092888422947397
O  14.36785320404579735509 24.80206541327860492174 6.29032779447289946972
O  14.23459250678166654325 21.46715809764226889911 6.21933351991948857318
O  11.70097777826362772657 27.62284074912019704584 7.90688338919459265952
Si 16.94924847774494836017 16.87134190887242013446 8.04468247064468755525
O  15.47124958785270010253 11.46932691337018539457 8.55583957866140387694
O  15.46900004468921352441 16.28599998823288785843 8.38099998624992537088
O  18.07446201528881246645 16.21289847756226265574 9.01232914163504084115
O  17.32777016776238809825 16.54921091911112185358 6.49330994794046389984
Si 16.79747632488464503808 19.93081093074858145542 7.73267177258625970637
O  15.46900003804426049214 20.63400000932319500180 8.38099998890550423880
O  15.47112709526865437226 25.45236982857439400618 8.56102281009447807492
O  18.11634120208324461032 20.83520173056864521755 8.03021783657841048409
O  17.03200005598074895374 18.45999999186597406720 8.38399995966531541569
O  16.60876853233228089834 19.83038374746892529288 6.12139244418232664202
H  -0.50423259821092791810 15.43969751399377443590 9.08178114813583547971
H  1.69998150257230040694 12.07827983311960551305 8.92297353518659797089
H  0.31527828061650708946 15.96291628495033521062 6.05244511992816747181
H  3.06011690930598234672 15.36094418868561106706 5.69970908498699202482
H  3.18226077271870622099 12.64156661658794078562 5.58570418808917512621
H  -0.12746516364804350019 20.79216845849863304352 10.01911988491213989505
H  1.69595558302505899917 24.83705368204606855898 8.91328417899475944353
H  0.06870204257077539012 21.06154561967952076884 6.26602479528226830041
H  3.18504441411255978522 24.28262459467564227111 5.58349175279577991660
H  3.04237624993629030001 21.56618416971267393478 5.70151829608632443325
H  6.86261732023114845447 9.19605253069470052196 9.37200294390037491610
H  5.50488190518830045050 11.07966287535549199106 5.83436112705043186111
H  5.53947202457606557857 16.40054320403112697591 5.95952170104963929731
H  8.05967269976894229444 15.81862342150630240667 6.04527862532233406512
H  8.86604803572984678794 13.39292817842013860741 5.95934373387287852353
H  5.51369467645339828010 20.50209974537841617348 5.95097614034205157907
H  5.50812286181704546806 25.85154711726521270521 5.83617094395996538481
H  8.84698059953965199043 23.55488087299403332509 5.94014873830957146339
H  8.01534688559716457235 21.12144569787429304597 6.01740514041303953263
H  6.85640193577355461230 27.71938859594808945985 9.38677005634501426812
H  12.07465572226690397883 8.98126917934459889636 8.71867792172002964435
H  10.73932832965028083549 11.69412444867380074243 5.80207311890320731607
H  10.72187988657262458503 16.34829359647998359151 5.91526737116499123914
H  13.31446530444440945473 15.80088676211241605074 5.88887823980789093525
H  13.52713006080233526518 11.98281384201766464059 5.82547799847251557281
H  10.69115572755784171477 20.54020171356208379621 5.84772945189849302494
H  10.74283607646243510203 25.24201418151857012617 5.79986200607187818434
H  13.53075164775363958825 24.94716800289398150881 5.82892497410160892457
H  13.39832301665481395503 21.21040223531084834008 5.80701731882102034632
H  12.07260088926803298648 27.93684519928277509848 8.73599233361593796587
H  15.82850340175322401137 11.79809416492448903568 9.38506512799813563674
H  18.14928358916126072131 15.25438693175016346970 9.00788299891749488779
H  16.62567003197272086368 16.64916104474681901593 5.84290708956944904173
H  15.82415888715189922209 25.12896139250706539769 9.39417316712725458672
H  18.51458375492897090453 20.76863316794991476399 8.90270021237643405243
H  15.82968317482568387788 20.30123647901474726041 5.78901744433530929257
P  13.16992934824593675103 23.78449191037941901072 11.72772002919650091712
O  14.38177301774217298203 19.71556273939622982994 12.67404986109154663154
O  14.05159732344503709101 16.80693677418851805783 11.65252571041732387869
O  14.34297721603649300448 18.33747262031240055080 9.61613596737704767747
O  13.99361715203875711211 22.42184614020920818689 11.92830750680207074765
O  12.68885747903476968190 24.28567044614889880449 13.06843236224712612170
O  11.87836930186983686042 23.42949425231136117986 10.82533524700317428824
O  9.19270155348339201851 22.58007259135702682329 11.93136936618589061254
O  14.06037288499325121904 24.77835535928578281073 11.01536687467829622733
N  12.15479452730022913443 19.50680105501145078506 13.37831452166256163139
N  11.32379198581878299024 21.56289569829426611136 13.67491716745316843173
N  10.49792561522777312177 18.70539528040511356721 11.72468604776005385304
N  8.93197196266102189099 20.40961447525470617848 11.17336104475218760967
N  8.84131590143993051356 18.28835749110885089408 10.16099624294729153462
C  13.17552685843768145446 17.90956083722130287583 11.70555133994148810928
C  13.50696352243472020405 18.91557700296725386124 10.58021795070316706244
C  13.36984563550131532850 18.75500055819817291081 12.99058487559450547622
C  14.21852201423963180105 20.09442906944526896496 11.30727446136700109491
C  13.43094188212613460109 21.40025571691891315140 11.17795987224414844263
C  10.99039007770342202264 19.58807393530742402277 12.62935128478159896304
C  12.27488769877520091711 20.73823949993351334342 14.01512288403381134572
C  10.50500851743263019955 20.88290578519572804339 12.83773429086692807743
C  9.47295517799239128465 21.38885989155116007510 11.98036359950404516894
C  9.43875345595738224347 19.12442037127105720629 11.06915277510958617313
H  12.15198744085960491645 17.51953549040580426777 11.62954068315030298209
H  12.58520618847078509361 19.25319721582186360820 10.08318079086375362863
H  13.72616408286177502873 18.13794473832663456392 13.82478702255231439722
H  15.23486952770809921276 20.22832620647026402594 10.91089449215817097638
H  12.40363785990509448709 21.26177592486091683099 11.54260406897457258424
H  13.37135484349034442175 21.74664592776582949796 10.13370758065715904195
H  14.36355191318110868792 16.68915192992205476230 10.72703503291772264561
H  14.76043091806232787633 19.05830508562619840518 9.08983110421579532101
H  13.15633048288073680965 21.05316071624395135586 14.55860044483365989265
H  8.29981380397230950052 20.69363852697045658147 10.42834343907264837981
H  8.00306516585520100193 18.50481855736981273708 9.63029512846610558086
H  9.33680020589199166636 17.50073618533875219327 9.75776957803941868974
H  11.02100229907733108803 23.28752715166930897794 11.27886579811898570824
*
