! PBE0 D3BJ CPCM(water) Opt ma-def2-TZVP TRAH

%pal
  nprocs 8
end

%maxcore 2500

%scf
  # A safety mechanism for difficult convergence
  MaxIter 500  # Increase max iterations from default 125
end

%geom
  Constraints
    { C 4 C }
    { C 6 C }
    { C 15 C }
    { C 16 C }
    { C 17 C }
    { C 25 C }
    { C 28 C }
    { C 40 C }
    { C 41 C }
    { C 54 C }
    { C 57 C }
    { C 59 C }
    { C 69 C }
    { C 70 C }
    { C 73 C }
    { C 81 C }
    { C 85 C }
    { C 88 C }
  end
end

* xyz -1 1
  Si          1.01584940691336     16.98473749793221      7.71442719708477
  Si          3.57923367567821     15.39133019492356      7.91059431342413
  Si          3.67964630880507     12.35914089179849      7.70939668367368
  O          -0.46139985104546     16.39272386451212      8.01662961553843
  O           2.14699997194825     16.01900004503999      8.38100001737441
  O           2.21311226627545     11.68896476260120      7.88474360985874
  O           3.70999998330615     13.84499992094770      8.38400001975586
  O           1.39966403956866     17.05764420060718      6.12447492573574
  O           3.69829387271895     15.42879792811216      6.27215702184533
  O           4.00519393970909     12.46145685683141      6.11287476427345
  Si          0.86014885982922     20.01298931104783      7.93053319381898
  Si          3.60761999833852     24.59804377458459      7.80395007909020
  Si          3.57522283649379     21.52508193969712      7.89287768164530
  O          -0.46768088559621     20.66082861233224      8.59509867985980
  O           2.16593027171910     25.21977574157360      8.21459293089325
  O           2.14699988677398     20.90100032545601      8.38099989601097
  O           1.04499999175025     18.45999979532281      8.38399999836315
  O           3.71000017622094     23.07499989984875      8.38400003566841
  O           0.68558282283008     19.92385627234851      6.31365149871032
  O           3.80821389507576     24.67658107638256      6.18665917861577
  O           3.75577665213103     21.37543143066659      6.27703225661214
  Si          6.22535850218882     10.73903427981448      7.89845972784266
  Si          6.22372225317021     16.88799309182872      7.97412499175508
  Si          8.87397570543970     15.39967949045710      8.09573698230070
  Si          8.88208210252179     12.35060316212968      7.92798470236717
  O           4.81099999443966     11.40400000550388      8.38100000898946
  O           4.83721349132031     16.23245950103416      8.52180204591708
  O           7.51959044175533     16.13237224190063      8.62221191948324
  O           7.47599999236346     11.67100001501852      8.38099999817111
  O           6.39052161907148      9.26344710901001      8.55160382024324
  O           8.96099363405582     13.85057664815607      8.58679184726317
  O           6.19942835255328     10.54192336113030      6.28557420065140
  O           6.33968475315317     16.69597607773542      6.35592012180183
  O           8.90387408858695     15.41792389845013      6.45310084565787
  O           8.99636373712165     12.49456682962092      6.30049543426892
  Si          6.22457061591832     20.02135677770603      7.94992435289609
  Si          6.22506653447735     26.17967171974694      7.90712257509278
  Si          8.88071795423388     24.56599328846847      7.93846675047425
  Si          8.87313456580914     21.50905197014868      8.08324775535858
  O           4.83782462299223     20.68401666945452      8.49038410136560
  O           4.81099990864442     25.51600007053547      8.38099999877195
  O           7.47600008728896     25.24899999643211      8.38099998503034
  O           7.51456422734140     20.77735450124908      8.59796655026743
  O           6.27733593032244     18.45684658942883      8.37979711338681
  O           8.95843194288389     23.05741709045766      8.56401106137301
  O           6.34276155221284     20.18827436128885      6.33028613944240
  O           6.19197695316156     26.38738280920997      6.29538162109732
  O           8.99675556392641     24.43357038054970      6.30565294757449
  O           8.90656655315138     21.48790558280247      6.43800680870391
  O           6.39629116153814     27.64928703608728      8.57661600562308
  Si         11.54129636685945     10.90123523746061      7.70706547257434
  Si         11.53594308555095     16.89515724697445      8.02321317435544
  Si         14.18632547072613     15.40106302253825      7.89820426149976
  Si         14.23457525139530     12.29559078602454      7.89604227949602
  O          10.14000000737629     11.40399996607274      8.38100000184245
  O          10.17707422331282     16.21916688184971      8.64267603432868
  O          12.84810318847305     16.09251587469527      8.55838188009908
  O          12.80499999585354     11.67100004057932      8.38099999418128
  O          11.69992129630402      9.29798350878962      7.90380346730937
  O          14.36799997499377     13.84499999853337      8.38400000505782
  O          11.52689150346895     11.20002502807562      6.10280734969993
  O          11.50598626141694     16.76049597868145      6.39509386597069
  O          14.04506421966353     15.44418790223331      6.27862001013781
  O          14.36133615178035     12.11967988347944      6.28475157302919
  Si         11.53010630172290     20.02629637994498      8.02348848732347
  Si         11.53820057556243     26.01440650462023      7.70417200740324
  Si         14.22734219925431     24.62186927320652      7.88160421563936
  Si         14.17830845140379     21.51871766981935      7.91699223392834
  O          10.17604160419423     20.70066765172924      8.63014353754127
  O          10.14000003159825     25.51600002870695      8.38099999978118
  O          12.80499999715664     25.24899999747022      8.38099999712193
  O          12.83713237744180     20.83867874917994      8.56609988199628
  O          11.62178639901003     18.46055766016066      8.46501613524647
  O          14.36799998249613     23.07499998552759      8.38400000181371
  O          11.52473273702180     20.16419621799453      6.39353636874658
  O          11.52460387218050     25.70372757255764      6.10137424694499
  O          14.32854900051812     24.76883386761124      6.26620824336299
  O          14.08401045367312     21.41571843832596      6.28646497957779
  O          11.70005483713434     27.61900326146863      7.88860225281349
  Si         16.91559953287235     16.89003368223436      7.93692155042382
  O          15.47157437178503     11.46962606892730      8.54914043838702
  O          15.46900003222660     16.28599999291879      8.38100000293587
  O          18.09371019114326     16.03611830290525      8.65695573757005
  O          17.17130215736555     16.77048797195977      6.33496907729785
  Si         16.72981165369891     19.88826239284896      7.66542242955994
  O          15.46900003631863     20.63400001730709      8.38100000180887
  O          15.47610713058182     25.45046254092329      8.50627471814934
  O          18.05747491159033     20.82180355623662      7.72682358579260
  O          17.03199996109105     18.45999999479815      8.38399999781607
  O          16.38973041935313     19.60381132420588      6.09378595587169
  H          -0.65428404486145     15.49345563432924      7.73440910384733
  H           1.89979098168806     11.50087195581838      8.77422458088767
  H           1.17112608782350     17.88163983192642      5.67388248728181
  H           3.01466216547682     15.96604486930747      5.83653613139957
  H           3.91430190274642     13.33958552483047      5.71930907411961
  H          -0.37739302408876     21.11593686561147      9.43722536554976
  H           1.70379432474390     24.82307314675762      8.95826680656167
  H           0.43190441752986     20.71005753375167      5.82144666811156
  H           3.12548772163536     24.33706338124208      5.60155826059742
  H           3.06631333602586     21.66583827648215      5.67359039309234
  H           6.92585272468367      9.18712323958761      9.34594150243005
  H           5.62396712281377     11.16314860860125      5.81783925457588
  H           5.55666529669378     16.32026792531378      5.92601404403264
  H           8.12137936126170     15.82915071739011      6.04691983116934
  H           8.88340751260040     13.39301051254411      5.95718093741901
  H           5.55112496931244     20.54465171483197      5.89802930638467
  H           5.50021220526670     25.88454219892778      5.84442390609092
  H           8.88155474731077     23.53625815645305      5.96078377250969
  H           8.12665253930666     21.07503967388237      6.03008642352128
  H           6.87153847696724     27.69935075021725      9.41055900976824
  H          12.07630159010847      8.98295315969924      8.73036148492278
  H          10.74068528609324     11.68227028766928      5.80079464309598
  H          10.69308929819018     16.39285112075814      6.01805760361782
  H          13.21976136047658     15.84121782692953      5.96149715425687
  H          13.52199610190989     11.98478272694024      5.82459462766046
  H          10.70973534268590     20.52287415710337      6.01163999143595
  H          10.73151484430573     25.22532630645899      5.80843844734184
  H          13.48365559018798     24.92425360433309      5.82151261285051
  H          13.23248492819968     21.08285615182463      5.95940212662509
  H          12.06283167568617     27.94064216903737      8.71867439803010
  H          15.82964391825647     11.79602643859406      9.37893968695340
  H          17.85481826632826     15.52620597911616      9.43545854618712
  H          16.85623456867570     17.52758619148333      5.82324173140651
  H          15.83352188761615     25.14601832187580      9.34477805106944
  H          18.45703587874544     20.98340244900969      8.58634369999603
  H          15.62429882732294     20.09094604349660      5.75504359574310
  N           5.97042554300180     21.62604918933430     12.19206016469021
  C           5.51653390573314     22.91555018932882     12.02254462119732
  N           6.46982225933312     23.82152860125147     11.64158856586245
  C           7.83732102946889     23.61065406709154     11.52191545109714
  C           8.21695043105540     22.23949291288329     11.70191643363013
  C           7.28849765057361     21.32142147111961     12.03733954579406
  O           4.35375375603397     23.23228891787389     12.20984407747930
  O           8.58399144640029     24.55290726968975     11.29492509168897
  C           5.00190006275533     20.67183216304997     12.80900922351685
  C           3.85856064138131     20.26303018154847     11.89838985197387
  C           4.28922065167962     18.91498499398032     11.33696583610162
  C           5.24028095787236     18.37944392269554     12.40133639495542
  O           3.23125614256831     18.00229004630338     11.14388497495054
  O           5.67227667086428     19.50734544280294     13.16943161110168
  C           6.42458307997607     17.66671564287321     11.80003473851263
  O           7.28490735305207     17.19199677181353     12.81737106335941
  P           8.88913399054341     17.38437445682687     12.67212747458237
  O           9.18871497105068     18.73529051911327     12.10962318380939
  O           9.44847204946679     16.94056293426855     13.97465881330761
  O           9.27736408205633     16.27179510108540     11.55515306779895
  H           6.14102648592789     24.77156773062546     11.52786935619390
  H           9.25392999985334     21.95868973921919     11.59258984390373
  H           7.56757700442382     20.28979312095872     12.21311797174767
  H           4.64415448750069     21.17645138607905     13.70855147644262
  H           2.96452555002676     20.11690349314021     12.50830293299771
  H           3.63940628545222     21.00705376613264     11.13750089605748
  H           4.83067247422324     19.05175060987375     10.39906923894638
  H           4.69646521470303     17.70387759544271     13.07070743245791
  H           2.81268981816424     18.19809819138660     10.29908087037499
  H           6.05194817039958     16.82136468473307     11.21042962345228
  H           6.95996517159365     18.34713510353225     11.13227759217084
  H           9.52370593008864     16.68910378113484     10.72143022676559
*
