! PBE0 D3BJ CPCM(water) Opt ma-def2-TZVP

%pal
  nprocs 12
end

%maxcore 2500

%scf
  # A safety mechanism for difficult convergence
  MaxIter 500  # Increase max iterations from default 125
end

%geom
  Constraints
    { C 4 C }
    { C 6 C }
    { C 15 C }
    { C 16 C }
    { C 17 C }
    { C 25 C }
    { C 28 C }
    { C 40 C }
    { C 41 C }
    { C 54 C }
    { C 57 C }
    { C 59 C }
    { C 69 C }
    { C 70 C }
    { C 73 C }
    { C 81 C }
    { C 85 C }
    { C 88 C }
  end
end

* xyz -1 1
Si 0.82550245787885501159 16.90273297228860016617 8.02672838059491056129
Si 3.57859330566820599273 15.40405347465310015309 7.91524227746868547229
Si 3.61525350504923803641 12.32827175344493930709 7.79142756935112235084
O  -0.39399260151554393872 16.38822463034571086382 8.97049786789382785912
O  2.14700009453356432942 16.01900033891741159664 8.38100015359317040975
O  2.16833119245067518222 11.70013070034966062849 8.17359000023580861694
O  3.70999999376678601948 13.84500008846045915334 8.38400007705976690886
O  0.51413264911022338310 16.82449481406729674404 6.43064562386718208131
O  3.78242853328255090872 15.56381413466690410985 6.30078745768762615853
O  3.83835821547475752880 12.26151676856739669574 6.17638954285176033920
Si 0.79040531085387932819 20.03769976289428456084 8.11798358733514824337
Si 3.61646544536543412818 24.59144275393145662179 7.78977791430390631433
Si 3.57392351973954891520 21.51644690001976911731 7.91298153759484268477
O  -0.36656748289763818605 20.60916377665659382501 9.10618693947999879867
O  2.16894283442131907691 25.21986233062292726004 8.16918536111238680064
O  2.14699959655973149353 20.90100057404965738783 8.38099981872095689539
O  1.04500013059074614574 18.45999995847747854327 8.38399994037620999165
O  3.71000024902151004369 23.07499985993721836053 8.38399998461178164177
O  0.28796919606439708161 20.17942496564292653716 6.58029565325422716171
O  3.84322893297882561825 24.65740308984865691855 6.17523018123471789664
O  3.76807244599219792747 21.35886613186755411675 6.29712043480318417465
Si 6.22270354189681285106 10.74478943605756597890 7.89204941962052775040
Si 6.22770152192525650037 16.89731284465162275410 8.01236689691726944318
Si 8.87567188691525110755 15.40393529348737011730 8.07146733538589522539
Si 8.88270040144022487993 12.35331693781347439653 7.92738874250499403473
O  4.81099998681152563051 11.40400004914540232903 8.38100003077777522265
O  4.84026675404511852463 16.22821156649871454647 8.54553548351663039284
O  7.53252307198078696615 16.13444907042089226934 8.63606404922479420350
O  7.47599982247367123023 11.67100033737797204481 8.38099984983710655229
O  6.39553672356695379619 9.26420229555490770679 8.53484830594652166269
O  8.97115841120727708358 13.85656775890607761426 8.57903226474081748165
O  6.19358003158350012285 10.56500296914541081605 6.27778409379675839119
O  6.34068239747512407689 16.74021433820828619332 6.38952264517379653341
O  8.84554259983989155103 15.39082817187431473371 6.42808052329204659969
O  8.99617641167800741187 12.49448491777759784327 6.29922600114433794971
Si 6.21638864804704915912 20.01550532057763831517 8.00088218256771988024
Si 6.22275724019555376287 26.17797517126357220718 7.89639692890469646613
Si 8.88164512589084509386 24.57359633308951174513 7.91870136832177617947
Si 8.85075337725800359578 21.52825968382028420933 8.03684231210001520651
O  4.83212167818084026294 20.68555627664978402436 8.53863759335744987311
O  4.81099989743842648693 25.51600007650098689282 8.38100000152727275804
O  7.47600002972476573859 25.24899994974271777437 8.38099998694365311280
O  7.51705017528750119027 20.79206841099498959125 8.61378725517567289671
O  6.27926977739721525751 18.45840708453549083856 8.45642109480263393095
O  8.96178714469262871489 23.06765939095186723762 8.56086480387770620837
O  6.31668638214736333225 20.15995999887773848513 6.37582712177365440454
O  6.19404507118100333685 26.36676298168120524679 6.28308224254169722656
O  8.99771842499043295049 24.44641163465846744884 6.28994569997440855502
O  8.79833295548013261111 21.55854517740996811881 6.39502418547152551298
O  6.39500684351685588780 27.65560332838021295743 8.54611655664898428597
Si 11.54077766740676302959 10.90435190599180792503 7.70392435289793731101
Si 11.54475442092180514919 16.89738979937351359695 7.91695221448971597766
Si 14.20353636747770131876 15.39713050106781899729 7.87470928470154429846
Si 14.23582000377131606683 12.29374207119657747000 7.89821819612043185543
O  10.13999999859992051654 11.40400006846083513778 8.38100001579062947599
O  10.19474381008717145392 16.23030437502002953920 8.55061142985756994506
O  12.85059861354812582590 16.10098625604624089647 8.48098101369435219965
O  12.80500002998631359219 11.67099999200265258992 8.38100000705181358285
O  11.70002194487984681359 9.30021622824199667434 7.89283361355815404892
O  14.36799996734829854006 13.84500001001475766316 8.38399999644445337310
O  11.52647381626848144265 11.21103037442728300732 6.10107396741075991287
O  11.53153702277339931470 16.72019064865123638697 6.29171038910260538302
O  14.13836304022116507895 15.44005711279478632036 6.24791031971147337032
O  14.36592144785972102738 12.11520262044877327412 6.28747362102292139951
Si 11.52107504515145564028 20.04305290800890659852 7.85872172359512166651
Si 11.54104384333361288384 26.02008604399382463157 7.70790681475378214316
Si 14.23698964112260334502 24.62924635648005633470 7.90140953840363469141
Si 14.21263225784830019904 21.53527643639475286363 7.85646397959737274874
O  10.17156468620930453994 20.69915966075160085325 8.49678382018947431220
O  10.14000000830171366317 25.51600001671010886639 8.38100004350441807333
O  12.80499985526353690091 25.24899975741904611937 8.38099999897871761334
O  12.80499998588581789249 20.90100000752616438149 8.38100001175135211895
O  11.64364373471910774072 18.47899258450990345182 8.30700783464683212287
O  14.36799984681373665296 23.07499994283637789749 8.38400006806266340220
O  11.49649711738722679399 20.16818414185138053085 6.23103186654731189265
O  11.52979969360337264561 25.72254298422228657728 6.10357093831012154084
O  14.36785316429255487947 24.80206532883272885215 6.29032781190470124955
O  14.23459248707032820391 21.46715809859906443080 6.21933352293451502391
O  11.70097780792592878640 27.62284071126460105461 7.90688338310274474452
Si 16.94924852445260654576 16.87134190195819982705 8.04468244351205186149
O  15.47124958677251527206 11.46932691359104694584 8.55583957806772588128
O  15.46900003778289622858 16.28599998494711442731 8.38099999973176856827
O  18.07446203002141515981 16.21289848285060486432 9.01232912613889780573
O  17.32777016583077767109 16.54921092433036022840 6.49330995564198953929
Si 16.79747639014832572002 19.93081091972311469362 7.73267174322388939345
O  15.46900002980139632314 20.63400001923273663351 8.38100000258542365827
O  15.47112706283173366728 25.45236976716261878551 8.56102279004328714507
O  18.11634118918556879407 20.83520173626950366952 8.03021783190261118079
O  17.03199995932888555217 18.45999999693621873575 8.38399999851547761409
O  16.60876852553928983980 19.83038374588692320799 6.12139245004137233508
H  -0.50423256038881092422 15.43969750263108053900 9.08178119865815958178
H  1.69998151879220493754 12.07827977880465830651 8.92297346426801318842
H  0.31527827647180650672 15.96291627054212014514 6.05244512021025293791
H  3.06011691326988710671 15.36094415129346479887 5.69970908328975056634
H  3.18226076208893360331 12.64156659719467867831 5.58570419522701122617
H  -0.12746514103985973065 20.79216843379087364951 10.01911990067219448974
H  1.69595558899064524638 24.83705369245326721739 8.91328417533686767626
H  0.06870207229703950702 21.06154562988907130716 6.26602477475203745172
H  3.18504441830174656047 24.28262459116588445340 5.58349175274619824449
H  3.04237624354124491788 21.56618417801499276720 5.70151829895790918101
H  6.86261732157343917748 9.19605253241067899239 9.37200294917623821789
H  5.50488189828497809231 11.07966288674408694703 5.83436112689104913187
H  5.53947202774841684914 16.40054318432973445852 5.95952169862439795622
H  8.05967272208798135580 15.81862343188756092616 6.04527862508465485547
H  8.86604803371144356561 13.39292816994844770306 5.95934372797776568120
H  5.51369467751348985018 20.50209975494550818098 5.95097613806197500708
H  5.50812286288195895878 25.85154711841795460714 5.83617094372026379290
H  8.84698059843127637691 23.55488086561269511776 5.94014873957188882514
H  8.01534687357216490966 21.12144571186668784435 6.01740514200065756967
H  6.85640193505019990283 27.71938859612055949810 9.38677005664701447074
H  12.07465571925559899569 8.98126917835641513932 8.71867792227586058118
H  10.73932833524008145787 11.69412444671489659243 5.80207311835831518465
H  10.72187988552311388446 16.34829359061013320797 5.91526737376984534933
H  13.31446530441719744431 15.80088676011841464231 5.88887823866502024828
H  13.52713006094198888718 11.98281384105497338055 5.82547799859805248701
H  10.69115573152082809827 20.54020171179828579966 5.84772945152133338809
H  10.74283607263406992161 25.24201419017764891350 5.79986200147560282403
H  13.53075165591507911245 24.94716804154089118128 5.82892497086228900116
H  13.39832301819217441619 21.21040223775094446523 5.80701731807422749654
H  12.07260088957868759962 27.93684520877751253920 8.73599233966937305240
H  15.82850340205272487992 11.79809416530918397825 9.38506512781845891880
H  18.14928360104705973299 15.25438690997271606875 9.00788301246080891360
H  16.62567003221311523475 16.64916104359170390126 5.84290708808048009359
H  15.82415888095541234293 25.12896141068836541876 9.39417317542034879807
H  18.51458376040591602418 20.76863316202415532530 8.90270021128146638034
H  15.82968317899170962448 20.30123648093253052593 5.78901744178739008362
P  4.92844955010686369690 12.35855011971481687283 11.19102786380792124987
O  2.85638252510134282858 14.03399557065579728032 14.04329218980202398370
O  0.55534585754647203260 11.77053527947784949959 13.40499228123482566843
O  0.11485419105291505559 13.82478928145028262975 11.76117178448665612223
O  4.91946716538015493825 12.93269928540254554150 12.69633606018889615541
O  0.43675623099100491231 16.67095554641617027869 12.21677808500166939609
O  5.54220214537349953332 10.97488728158612758534 11.19433094666163341913
O  5.85985456662457337984 13.31333024891941718693 10.30619283277346909244
O  3.49817414836197748684 12.34600101494889479170 10.71234683310044211169
N  2.50572790428381697581 15.79154384411343770012 12.39997922528626972394
N  2.10345610935044291523 17.84609574495449280107 11.24407215468459497743
N  3.85764511686555433556 18.83847629233498821577 10.10621220882141102493
C  1.73514392434043074331 12.26534883463123470904 12.81016429933875144798
C  1.47275245202860283200 13.60603808003283354822 12.09806286480520398641
C  2.81486219774402002258 12.60483930474874370020 13.88443090045067762617
C  1.94580478087354347139 14.65609022948736139824 13.12260983916776879710
C  4.23474534845095451630 12.08852905207715267011 13.57844048748575715990
C  3.79864029357820420785 15.74398280873622901765 11.98032285277912123433
C  1.63346482905775580718 16.79049842276895532223 11.95849137393636674176
C  4.24996314294170218773 16.75406049903970995274 11.21931727228191455481
C  3.37245839579252937313 17.81597663150884258698 10.88498956279090279509
H  2.10205117686233577956 11.50957506593013945917 12.09904529733023181848
H  2.06900088500049683660 13.68484811042227811129 11.17454725307465679407
H  2.45617068451293452114 12.20354985909110112630 14.84461846453141475877
H  1.09728400145683657740 15.01335241904579831385 13.72146105721285636037
H  4.23057394773404116251 11.06221824646753404409 13.17382713781652725515
H  4.83976750896308693939 12.08455139054887084171 14.50061260256112305456
H  -0.21518020687189398643 12.09126661349194264972 12.88594510340199761345
H  -0.01856382864354166884 14.80033999557370272271 11.80094597844006898413
H  4.39357893455288994744 14.88055135612837887038 12.23268373955972165845
H  5.24563779928088003146 16.73876033878213220873 10.81005488401688552358
H  4.73287453107793876228 18.74374038737787628861 9.58787757502179616154
H  3.24829693914984751757 19.51153070420987134526 9.64403620315605181190
H  6.40696886076371896479 12.78303324849206390468 9.69175092498422330323
*
