! PBE0 D3BJ CPCM(water) Opt ma-def2-TZVP

%pal
  nprocs 12
end

%maxcore 2500

%scf
  # A safety mechanism for difficult convergence
  MaxIter 500  # Increase max iterations from default 125
end

%geom
  Constraints
    { C 4 C }
    { C 6 C }
    { C 15 C }
    { C 16 C }
    { C 17 C }
    { C 25 C }
    { C 28 C }
    { C 40 C }
    { C 41 C }
    { C 54 C }
    { C 57 C }
    { C 59 C }
    { C 69 C }
    { C 70 C }
    { C 73 C }
    { C 81 C }
    { C 85 C }
    { C 88 C }
  end
end

* xyz -1 1
Si 0.82550256553514778091 16.90273321339321910273 8.02672835134607254304
Si 3.57859338916820224341 15.40405380185791983649 7.91524250863208234108
Si 3.61525346532031655045 12.32827187609595753770 7.79142758784803035610
O  -0.39399255110953568249 16.38822461063709923224 8.97049796391662823680
O  2.14699992443028708777 16.01900001403070561423 8.38100000203246331409
O  2.16833122924662280440 11.70013062146085047743 8.17358994440099628775
O  3.71000007499142370193 13.84500000843266143136 8.38399999198855461202
O  0.51413263456186619749 16.82449474442048753531 6.43064562770938419334
O  3.78242852243887917041 15.56381404233454723851 6.30078740367133338651
O  3.83835818607927148349 12.26151674710498440390 6.17638957675151889504
Si 0.79040518611070709198 20.03770008178157979728 8.11798345080666017282
Si 3.61646550153824186680 24.59144274045720024446 7.78977790159821914528
Si 3.57392349100393413863 21.51644695759936354307 7.91298145200087876816
O  -0.36656749803356802886 20.60916369620952082187 9.10618692195046897098
O  2.16894289265333828354 25.21986234340859311942 8.16918535932521194809
O  2.14699990003428986540 20.90100006600341941976 8.38100000230754815789
O  1.04500006637006848109 18.45999990050377448370 8.38400001368711045302
O  3.71000012226664743764 23.07499993019009920658 8.38399999775651849632
O  0.28796921791173346605 20.17942495282556691905 6.58029563427533492614
O  3.84322892950245353916 24.65740308522053325646 6.17523017797558271269
O  3.76807242441061607252 21.35886613176363368893 6.29712044730381315105
Si 6.22270347605346607622 10.74478962132013393216 7.89204932922107804671
Si 6.22770124541180436495 16.89731259696864285047 8.01236698121216406321
Si 8.87567169085687446284 15.40393489023891149259 8.07146741405295209404
Si 8.88270018989685716804 12.35331725522648049775 7.92738867126688084852
O  4.81099995471342989362 11.40399997394572295661 8.38100000580768167424
O  4.84026674165351700196 16.22821144160739947893 8.54553536011753145374
O  7.53252353377746164398 16.13444974515447682961 8.63606401311012561450
O  7.47600001154310245255 11.67100002516622758719 8.38099999675369211616
O  6.39553672181441346112 9.26420229008384765734 8.53484835357198967642
O  8.97115844498263470541 13.85656775765001214040 8.57903219556840923588
O  6.19358004031395470435 10.56500296527632443144 6.27778410203216186147
O  6.34068245561975984970 16.74021437071364104554 6.38952262871238652053
O  8.84554263694544573582 15.39082824816663830347 6.42808051286884918341
O  8.99617644536268556976 12.49448485768554917286 6.29922600287797695984
Si 6.21638839293812317521 20.01550525377797029591 8.00088211255781800446
Si 6.22275723632754385051 26.17797517637853133010 7.89639692540012561039
Si 8.88164515515099139975 24.57359632824871553680 7.91870133962529809679
Si 8.85075338824528401460 21.52825980599482491584 8.03684233905925893282
O  4.83212175265103915933 20.68555654822365852397 8.53863760707846708442
O  4.81099990485163342413 25.51600006612439841547 8.38100000519445664793
O  7.47600002618672832000 25.24899994970078154211 8.38099999566131259598
O  7.51705027813218862320 20.79206828428527131791 8.61378728452114295067
O  6.27926982118236765018 18.45840710364539560828 8.45642110466141971870
O  8.96178712312599756729 23.06765938376063473925 8.56086479424479307454
O  6.31668640368215239533 20.15996000694277512366 6.37582712255093841947
O  6.19404507119920655356 26.36676298168587706527 6.28308224217432975678
O  8.99771841981988806936 24.44641163361660574083 6.28994570262351793133
O  8.79833296230834172036 21.55854515718393571433 6.39502418231711278196
O  6.39500684284173104288 27.65560332943547905415 8.54611655720045426676
Si 11.54077773994323408147 10.90435189811936922410 7.70392439262802408706
Si 11.54475442580651645130 16.89738980003255264251 7.91695222061356940202
Si 14.20353636812930808730 15.39713049983515524843 7.87470928485351961967
Si 14.23582000703620309423 12.29374206156018978220 7.89821818431935085414
O  10.13999999377786132015 11.40399999084022653051 8.38100000019677437990
O  10.19474381013711195010 16.23030440184406586468 8.55061142987704236873
O  12.85059861364238642523 16.10098625230641289363 8.48098101109382973561
O  12.80500002131654646575 11.67099999822766775992 8.38099999991140443001
O  11.70002193726931238871 9.30021622918398271906 7.89283361216264989224
O  14.36799996660290901218 13.84500000887566528718 8.38400000034028103357
O  11.52647381224511136111 11.21103037739819185958 6.10107396496722920176
O  11.53153702118495260720 16.72019065077711985623 6.29171038881522726172
O  14.13836303985625519886 15.44005711215458909180 6.24791031939263419304
O  14.36592144749305433038 12.11520262113447721219 6.28747362209479287998
Si 11.52107504342253641028 20.04305291853541248770 7.85872172430732440773
Si 11.54104380184154265976 26.02008594606226665746 7.70790687604708946168
Si 14.23698924541826649204 24.62924593802989647884 7.90140961386939100208
Si 14.21263216729560241447 21.53527643842543071173 7.85646401599430532769
O  10.17156467742538517030 20.69915964455363166508 8.49678381724418230192
O  10.13999999881755442743 25.51600000980419835628 8.38100000382432597235
O  12.80500000628511259038 25.24900000189843751741 8.38100000020241431287
O  12.80499999053204618349 20.90100000115468503736 8.38099999787158189690
O  11.64364373770285077114 18.47899258350777174087 8.30700783681695398286
O  14.36799998491425256475 23.07499998652534145549 8.38399999985675314917
O  11.49649711857068545839 20.16818414084257682362 6.23103186640106088134
O  11.52979969126412562730 25.72254299500341545581 6.10357093121654692425
O  14.36785320392521647648 24.80206541721964796920 6.29032779345662440562
O  14.23459250711206891538 21.46715809672338792780 6.21933351997165306813
O  11.70097780603456172344 27.62284072027643233582 7.90688338377418364900
Si 16.94924853752736026991 16.87134190568439251479 8.04468243452025788542
O  15.47124958699764540881 11.46932691421081784711 8.55583957821316865022
O  15.46900003535328060877 16.28599999037251677692 8.38100000302637582195
O  18.07446201113351236245 16.21289847872860434563 9.01232914032616960753
O  17.32777016194037145169 16.54921092140319771602 6.49330995614276673678
Si 16.79747638778910712176 19.93081091974673668688 7.73267174437509652307
O  15.46900003456253358536 20.63400001686856555239 8.38100000169815295692
O  15.47112709138430020062 25.45236983387999529782 8.56102281416116106527
O  18.11634118970600582088 20.83520173613950277058 8.03021783233680075398
O  17.03199996103417035442 18.45999999640023858660 8.38399999768445702841
O  16.60876852595452390915 19.83038374606164211400 6.12139245000561338372
H  -0.50423259775189777088 15.43969751369849596756 9.08178114811607706258
H  1.69998150269824321867 12.07827983306244412631 8.92297353521519553965
H  0.31527828225232035209 15.96291628420854458170 6.05244511905863546986
H  3.06011690941884761941 15.36094418893672042259 5.69970908516281760114
H  3.18226077268071705362 12.64156661650284263487 5.58570418808100388475
H  -0.12746512728234016265 20.79216849285823087712 10.01911989648319334378
H  1.69595558344912333837 24.83705368297542648293 8.91328417940536787967
H  0.06870205690063713178 21.06154562401093244262 6.26602479013817692532
H  3.18504441554286721328 24.28262459352460922446 5.58349175253164187183
H  3.04237625223272445396 21.56618416852657915683 5.70151829891226391567
H  6.86261732043574035345 9.19605253060978711233 9.37200294390522969934
H  5.50488190529797449813 11.07966287525486315246 5.83436112707569165536
H  5.53947202831348040064 16.40054319866476717493 5.95952170022504201796
H  8.05967270045641015486 15.81862340831055924184 6.04527862681594996275
H  8.86604803846087108354 13.39292817984140526733 5.95934373389373739371
H  5.51369468223297687359 20.50209974654031697128 5.95097614176608580294
H  5.50812286205630741165 25.85154711737726529464 5.83617094400147795596
H  8.84698059990326868274 23.55488086621942045440 5.94014873950080346532
H  8.01534686669866047737 21.12144571524475722413 6.01740514163179529561
H  6.85640193561967503655 27.71938859590596848648 9.38677005637983086217
H  12.07465572244516494038 8.98126917928196100149 8.71867792172309563625
H  10.73932833015018850631 11.69412444808061124490 5.80207311862861363494
H  10.72187988486251519760 16.34829359055605024764 5.91526737382365919160
H  13.31446530453328946919 15.80088676051675200540 5.88887823867925419563
H  13.52713006097408943162 11.98281384149610140355 5.82547799844881897258
H  10.69115573083696801859 20.54020171240159697845 5.84772945164633739523
H  10.74283607552791863782 25.24201418304011212967 5.79986200395589612810
H  13.53075164684655007363 24.94716799966676390454 5.82892497354972682899
H  13.39832301672871928133 21.21040223620039455454 5.80701731885886118789
H  12.07260089146921089309 27.93684520752813682520 8.73599233873850700149
H  15.82850340175251702135 11.79809416482840589424 9.38506512801500925036
H  18.14928359237956101424 15.25438693193581229934 9.00788299567668460099
H  16.62567003253193576029 16.64916104303234334338 5.84290708839554984166
H  15.82415888952270144330 25.12896139030502951073 9.39417316306796479353
H  18.51458376039143161051 20.76863316210317478294 8.90270021122993071572
H  15.82968317752194131742 20.30123648173820782858 5.78901744215675595484
P  9.42287107813200286444 18.38416830607251029051 10.99850679237652784082
O  5.79995014921814000530 18.06302186631904760361 12.97825796406851850406
O  3.89850705317924983717 15.79053264738162454250 12.21162230252679670173
O  2.80406856069129695186 17.97505500210751350210 11.14780121431071080451
O  8.29434899964554084306 17.86524262985599875719 12.02868962094397353724
O  3.06206714096718179974 20.80666365491291003309 11.62126183547054480982
O  10.66624503907520882251 17.53351747269637783688 11.10830564062252179269
O  9.73927050078273737199 19.92624417191872865374 11.27702780995762843474
O  8.84568971407543713781 18.38573158987546918297 9.59694874561571253935
N  5.20238684248650518072 20.10498140596632055122 11.85013222552997191883
N  4.66947566370621736098 22.28519382081384136995 11.03726187197015917718
N  6.41323586967190450991 23.58852390663403753024 10.20438887778367131887
C  4.80141307209601908568 16.54187351200268452089 11.43649002516692014808
C  4.21241281290274827143 17.94054610462511689661 11.14931397767061582726
C  6.09283984891327534683 16.87700294036736892167 12.23726107015848718618
C  4.75897241800635484310 18.79936370942024126407 12.31738914058035661014
C  7.32124645425587416980 17.12861878711423813115 11.34468258899988057919
C  6.53546488592329311018 20.32429889425750957344 11.71286924485036884391
C  4.25744201568152647042 21.07549655225755813603 11.50561710385058056261
C  6.93929552767854040951 21.50249941642682927068 11.22060644955299757441
C  5.96700073118498597324 22.46263773057834711722 10.85814512693494116036
H  5.01145200694985248902 15.97485474411251260562 10.51784470000333016060
H  4.56846137174514144164 18.33001479559071356107 10.18084031106644360420
H  6.29711823534220904719 16.09694335319909797022 12.98500318841805700742
H  3.96889964570847819658 18.95324431175043855546 13.06434874805228041339
H  7.03778459277943113648 17.73254488374541182338 10.46439520881778939554
H  7.78010342956033973394 16.19515680900822474086 10.97515762178140619199
H  2.98719233655608107370 16.00769672345597172125 11.91373256199175756365
H  2.56957793880149232280 18.92801554382430495593 11.21178977706205515119
H  7.22180818079592867775 19.53813383029473271790 11.97667446879875718935
H  7.98127688179781724642 21.69747351919678379772 11.03545925955404172214
H  7.30437377208237048620 23.54016084880854009498 9.70278807259437492405
H  5.76151425153743268481 24.16899377621093947255 9.68709893251185860663
H  9.95460028371200245090 20.26868208028456308512 10.38242207417332352293
*
