! SP PBE0 D3BJ def2-TZVP TightSCF

%pal nprocs 10 end

%maxcore 2000

* xyzfile 0 1 surface.xyz
