! SP PBE0 D3BJ def2-TZVP TightSCF

%pal nprocs 10 end

%maxcore 2000

* xyzfile -1 1 ump.xyz
